6
Coordinates from ORCA-job neb_initial_path E   0.000000000000
  C       0.308438      0.001548     -0.010576
  Cl      2.140610      0.002551     -0.019709
  H      -0.030064     -0.791634      0.657690
  H      -0.035298     -0.179551     -1.029714
  H      -0.031425      0.975489      0.344389
  F      -2.352262     -0.008402      0.057921
6
Coordinates from ORCA-job neb_initial_path E   0.000000000000
  C       0.281665      0.001477     -0.009998
  Cl      2.156110      0.002640     -0.020459
  H      -0.033794     -0.795334      0.661251
  H      -0.039729     -0.180417     -1.033705
  H      -0.035405      0.979819      0.346493
  F      -2.328847     -0.008186      0.056419
6
Coordinates from ORCA-job neb_initial_path E   0.000000000000
  C       0.254219      0.001406     -0.009416
  Cl      2.171382      0.002729     -0.021197
  H      -0.037125     -0.798998      0.664773
  H      -0.043763     -0.181275     -1.037667
  H      -0.038987      0.984110      0.348572
  F      -2.305726     -0.007972      0.054935
6
Coordinates from ORCA-job neb_initial_path E   0.000000000000
  C       0.226064      0.001333     -0.008830
  Cl      2.186432      0.002815     -0.021921
  H      -0.040046     -0.802577      0.668215
  H      -0.047388     -0.182114     -1.041540
  H      -0.042160      0.988303      0.350605
  F      -2.282902     -0.007761      0.053471
6
Coordinates from ORCA-job neb_initial_path E   0.000000000000
  C       0.197186      0.001259     -0.008237
  Cl      2.201264      0.002899     -0.022632
  H      -0.042552     -0.806016      0.671530
  H      -0.050599     -0.182921     -1.045256
  H      -0.044919      0.992332      0.352567
  F      -2.260380     -0.007552      0.052027
6
Coordinates from ORCA-job neb_initial_path E   0.000000000000
  C       0.167595      0.001183     -0.007637
  Cl      2.215886      0.002982     -0.023330
  H      -0.044651     -0.809257      0.674670
  H      -0.053400     -0.183685     -1.048739
  H      -0.047269      0.996124      0.354433
  F      -2.238161     -0.007347      0.050603
6
Coordinates from ORCA-job neb_initial_path E   0.000000000000
  C       0.137318      0.001106     -0.007029
  Cl      2.230308      0.003064     -0.024016
  H      -0.046357     -0.812240      0.677583
  H      -0.055805     -0.184390     -1.051913
  H      -0.049226      0.999605      0.356176
  F      -2.216239     -0.007144      0.049200
6
Coordinates from ORCA-job neb_initial_path E   0.000000000000
  C       0.106405      0.001026     -0.006413
  Cl      2.244549      0.003143     -0.024689
  H      -0.047698     -0.814904      0.680219
  H      -0.057840     -0.185024     -1.054701
  H      -0.050816      1.002702      0.357769
  F      -2.194601     -0.006944      0.047816
6
Coordinates from ORCA-job neb_initial_path E   0.000000000000
  C       0.074924      0.000945     -0.005788
  Cl      2.258629      0.003221     -0.025352
  H      -0.048710     -0.817192      0.682532
  H      -0.059539     -0.185574     -1.057029
  H      -0.052075      1.005346      0.359188
  F      -2.173227     -0.006747      0.046449
6
Coordinates from ORCA-job neb_initial_path E   0.000000000000
  C       0.042959      0.000861     -0.005152
  Cl      2.272575      0.003299     -0.026006
  H      -0.049442     -0.819052      0.684478
  H      -0.060951     -0.186027     -1.058830
  H      -0.053052      1.007471      0.360411
  F      -2.152089     -0.006551      0.045099
6
Coordinates from ORCA-job neb_initial_path E   0.000000000000
  C       0.010619      0.000776     -0.004506
  Cl      2.286414      0.003375     -0.026651
  H      -0.049950     -0.820442      0.686023
  H      -0.062130     -0.186375     -1.060047
  H      -0.053801      1.009025      0.361419
  F      -2.131152     -0.006358      0.043762
6
Coordinates from ORCA-job neb_initial_path E   0.000000000000
  C      -0.021957      0.000688     -0.003848
  Cl      2.300172      0.003450     -0.027291
  H      -0.050299     -0.821327      0.687138
  H      -0.063139     -0.186610     -1.060635
  H      -0.054388      1.009966      0.362200
  F      -2.110391     -0.006167      0.042437
6
Coordinates from ORCA-job neb_initial_path E   0.000000000000
  C      -0.054572      0.000598     -0.003181
  Cl      2.313854      0.003525     -0.027926
  H      -0.050558     -0.821686      0.687808
  H      -0.064047     -0.186727     -1.060567
  H      -0.054881      1.010268      0.362743
  F      -2.089796     -0.005977      0.041122
6
Coordinates from ORCA-job neb_initial_path E   0.000000000000
  C      -0.086993      0.000506     -0.002506
  Cl      2.327454      0.003598     -0.028554
  H      -0.050807     -0.821509      0.688022
  H      -0.064931     -0.186724     -1.059828
  H      -0.055360      1.009917      0.363045
  F      -2.069363     -0.005788      0.039820
6
Coordinates from ORCA-job neb_initial_path E   0.000000000000
  C      -0.119556      0.000411     -0.001812
  Cl      2.341199      0.003673     -0.029189
  H      -0.051104     -0.820807      0.687798
  H      -0.065858     -0.186603     -1.058422
  H      -0.055885      1.008925      0.363119
  F      -2.048795     -0.005598      0.038506
6
Coordinates from ORCA-job neb_initial_path E   0.000000000000
  C      -0.152029      0.000313     -0.001102
  Cl      2.355084      0.003749     -0.029831
  H      -0.051525     -0.819590      0.687146
  H      -0.066903     -0.186369     -1.056363
  H      -0.056532      1.007303      0.362968
  F      -2.028094     -0.005407      0.037181
6
Coordinates from ORCA-job neb_initial_path E   0.000000000000
  C      -0.184218      0.000212     -0.000376
  Cl      2.369112      0.003825     -0.030481
  H      -0.052137     -0.817884      0.686087
  H      -0.068133     -0.186025     -1.053683
  H      -0.057369      1.005086      0.362607
  F      -2.007255     -0.005214      0.035845
6
Coordinates from ORCA-job neb_initial_path E   0.000000000000
  C      -0.215990      0.000109      0.000364
  Cl      2.383299      0.003903     -0.031139
  H      -0.053001     -0.815731      0.684658
  H      -0.069605     -0.185583     -1.050433
  H      -0.058454      1.002320      0.362054
  F      -1.986249     -0.005019      0.034496
6
Coordinates from ORCA-job neb_initial_path E   0.000000000000
  C      -0.247248      0.000004      0.001118
  Cl      2.397666      0.003982     -0.031806
  H      -0.054167     -0.813177      0.682898
  H      -0.071372     -0.185052     -1.046672
  H      -0.059839      0.999065      0.361331
  F      -1.965039     -0.004822      0.033132
6
Coordinates from ORCA-job neb_initial_path E   0.000000000000
  C      -0.277917     -0.000104      0.001885
  Cl      2.412227      0.004062     -0.032486
  H      -0.055677     -0.810278      0.680856
  H      -0.073473     -0.184446     -1.042470
  H      -0.061564      0.995388      0.360464
  F      -1.943595     -0.004622      0.031750
6
Coordinates from ORCA-job neb_initial_path E   0.000000000000
  C      -0.307941     -0.000214      0.002665
  Cl      2.426991      0.004144     -0.033177
  H      -0.057559     -0.807092      0.678582
  H      -0.075939     -0.183778     -1.037900
  H      -0.063660      0.991361      0.359479
  F      -1.921891     -0.004420      0.030351
6
Coordinates from ORCA-job neb_initial_path E   0.000000000000
  C      -0.337285     -0.000326      0.003458
  Cl      2.441961      0.004227     -0.033882
  H      -0.059835     -0.803682      0.676127
  H      -0.078788     -0.183061     -1.033041
  H      -0.066145      0.987058      0.358405
  F      -1.899908     -0.004216      0.028933
6
Coordinates from ORCA-job neb_initial_path E   0.000000000000
  C      -0.365934     -0.000440      0.004260
  Cl      2.457128      0.004312     -0.034599
  H      -0.062510     -0.800107      0.673542
  H      -0.082026     -0.182310     -1.027969
  H      -0.069027      0.982553      0.357269
  F      -1.877631     -0.004009      0.027498
6
Coordinates from ORCA-job neb_initial_path E   0.000000000000
  C      -0.393894     -0.000555      0.005071
  Cl      2.472482      0.004399     -0.035329
  H      -0.065582     -0.796425      0.670876
  H      -0.085650     -0.181537     -1.022759
  H      -0.072302      0.977917      0.356095
  F      -1.855054     -0.003799      0.026046
6
Coordinates from ORCA-job neb_initial_path E   0.000000000000
  C      -0.421195     -0.000671      0.005889
  Cl      2.488002      0.004488     -0.036071
  H      -0.069039     -0.792689      0.668174
  H      -0.089645     -0.180755     -1.017478
  H      -0.075957      0.973216      0.354907
  F      -1.832167     -0.003588      0.024579
6
Coordinates from ORCA-job neb_initial_path E   0.000000000000
  C      -0.447889     -0.000788      0.006712
  Cl      2.503670      0.004578     -0.036824
  H      -0.072859     -0.788947      0.665474
  H      -0.093989     -0.179974     -1.012188
  H      -0.079971      0.968507      0.353726
  F      -1.808962     -0.003375      0.023101
