
                                 *****************
                                 * O   R   C   A *
                                 *****************

                                            #,                                       
                                            ###                                      
                                            ####                                     
                                            #####                                    
                                            ######                                   
                                           ########,                                 
                                     ,,################,,,,,                         
                               ,,#################################,,                 
                          ,,##########################################,,             
                       ,#########################################, ''#####,          
                    ,#############################################,,   '####,        
                  ,##################################################,,,,####,       
                ,###########''''           ''''###############################       
              ,#####''   ,,,,##########,,,,          '''####'''          '####       
            ,##' ,,,,###########################,,,                        '##       
           ' ,,###''''                  '''############,,,                           
         ,,##''                                '''############,,,,        ,,,,,,###''
      ,#''                                            '''#######################'''  
     '                                                          ''''####''''         
             ,#######,   #######,   ,#######,      ##                                
            ,#'     '#,  ##    ##  ,#'     '#,    #''#        ,####,    ,#,          
            ##       ##  ##   ,#'  ##            #'  '#       #'       ,# #          
            ##       ##  #######   ##           ,######,      #####,      #          
            '#,     ,#'  ##    ##  '#,     ,#' ,#      #,     #,   #      #          
             '#######'   ##     ##  '#######'  #'      '#     '####' #    #          



                #########################################################
                #                        -***-                          #
                #          Department of theory and spectroscopy        #
                #                                                       #
                #                      Frank Neese                      #
                #                                                       #
                #     Directorship, Architecture, Infrastructure        #
                #                    SHARK, DRIVERS                     #
                #        Core code/Algorithms in most modules           #
                #                                                       #
                #        Max Planck Institute fuer Kohlenforschung      #
                #                Kaiser Wilhelm Platz 1                 #
                #                 D-45470 Muelheim/Ruhr                 #
                #                      Germany                          #
                #                                                       #
                #                  All rights reserved                  #
                #                        -***-                          #
                #########################################################


                         Program Version 6.1.0  -  RELEASE   -
                                (GIT: $679e74b$)
                          ($2025-06-10 18:02:51 +0200$)


 With contributions from (in alphabetic order):
[Max-Planck-Institut fuer Kohlenforschung]                               
  Daniel Aravena         : Magnetic Suceptibility                        
  Michael Atanasov       : Ab Initio Ligand Field Theory (pilot matlab implementation)
  Alexander A. Auer      : GIAO ZORA, VPT2 properties, NMR spectrum      
  Ute Becker             : All parallelization in ORCA, NUMFREQ, NUMCALC 
  Giovanni Bistoni       : ED, misc. LED, open-shell LED, HFLD           
  Dmytro Bykov           : pre 5.0 version of the SCF Hessian            
  Marcos Casanova-Páez   : Triplet and SCS-CIS(D). UHF-(DLPNO)-IP/EA/STEOM-CCSD. UHF-CVS-IP/STEOM-CCSD   
  Vijay G. Chilkuri      : MRCI spin determinant printing, contributions to CSF-ICE 
  Pauline Colinet        : FMM embedding                                 
  Dipayan Datta          : RHF DLPNO-CCSD density                        
  Achintya Kumar Dutta   : EOM-CC, STEOM-CC                              
  Nicolas Foglia         : Exact transition moments, OPA infrastructure, MCD improvements    
  Dmitry Ganyushin       : Spin-Orbit,Spin-Spin,Magnetic field MRCI      
  Miquel Garcia-Rates    : C-PCM and meta-GGA Hessian, CCSD/C-PCM, Gaussian charge scheme 
  Tiago L. C. Gouveia    : GS-ROHF, GS-ROCIS                             
  Yang Guo               : DLPNO-NEVPT2, F12-NEVPT2, CIM, IAO-localization        
  Andreas Hansen         : Spin unrestricted coupled pair/coupled cluster methods 
  Ingolf Harden          : AUTO-CI MPn and infrastructure                
  Benjamin Helmich-Paris : MC-RPA, TRAH-(SCF,CASSCF), AVAS, COSX integrals, SCF dyn. polar., MC-PDFT, srDFT 
  Lee Huntington         : MR-EOM, pCC                                   
  Robert Izsak           : Overlap fitted RIJCOSX, COSX-SCS-MP3, EOM     
  Riya Kayal             : Wick's Theorem for AUTO-CI, AUTO-CI UHF-CCSDT 
  Emily Kempfer          : AUTO-CI RHF CISDT and CCSDT, approximate NEVPT4
  Christian Kollmar      : KDIIS, OOCD, Brueckner-CCSD(T), CCSD density, CASPT2, CASPT2-K, improved NEVPT2 
  Axel Koslowski         : Symmetry handling                             
  Simone Kossmann        : meta-GGA functionals, TD-DFT gradient, OOMP2, (MP2 Hessian; deprecated post 5.0) 
  Lucas Lang             : DCDCAS, Hyperfine gauge corrections, ICE-SOC+SSC
  Marvin Lechner         : AUTO-CI (C++ implementation), FIC-MRCC        
  Spencer Leger          : CASSCF response                               
  Dagmar Lenk            : GEPOL surface, SMD, ORCA-2-JSON               
  Dimitrios Liakos       : Extrapolation schemes; Compound Job, Property file
  Dimitrios Manganas     : Further ROCIS development; embedding schemes. LFT, Crystal Embedding 
  Dimitrios Pantazis     : SARC Basis sets                               
  Anastasios Papadopoulos: AUTO-CI, single reference methods and gradients 
  Taras Petrenko         : pre 6.0 DFT Hessian and TD-DFT gradient,  ECA, NRVS 
  Petra Pikulova         : Analytic Raman intensities                    
  Peter Pinski           : DLPNO-MP2, DLPNO-MP2 Gradient                 
  Shashank Vittal Rao    : ES-AILFT, MagRelax                            
  Christoph Reimann      : Effective Core Potentials                     
  Marius Retegan         : Local ZFS, SOC                                
  Christoph Riplinger    : Optimizer, TS searches, QM/MM, DLPNO-CCSD(T), (RO)-DLPNO pert. Triples 
  Michael Roemelt        : Original ROCIS implementation, recursive CI coupling coefficients
  Masaaki Saitow         : Open-shell DLPNO-CCSD energy and density      
  Barbara Sandhoefer     : DKH picture change effects                    
  Yorick L. A. Schmerwitz: GMF and freeze-and-release deltaSCF, NEB S-IDPP initial path                    
  Kantharuban Sivalingam : CASSCF convergence/infrastructure, NEVPT2, NEVPT3, NEVPT4(SD), FIC-MRCI and CEPA variants
  Bernardo de Souza      : ESD, SOC TD-DFT                               
  Georgi L. Stoychev     : AutoAux, RI-MP2 NMR, DLPNO-MP2 response, X2C  
  Van Anh Tran           : RI-MP2 g-tensors                              
  Willem Van den Heuvel  : Paramagnetic NMR                              
  Zikuan Wang            : NOTCH, Electric field optimization            
  Frank Wennmohs         : Technical directorship and infrastructure     
  Hang Xu                : AUTO-CI-Response properties                   
                                                                         
[FACCTs GmbH]                                                            
  Markus Bursch, Nicolas Foglia, Miquel Garcia-Rates, Ingolf Harden, Hagen Neugebauer, Anastasios Papadopoulos, 
  Christoph Riplinger, Bernardo de Souza, Georgi L. Stoychev                                                    
                                                                 
  APM, various basis sets, CI-OPT, improved COSX, DLPNO-Multilevel,           
  DOCKER, DRACO, updates on ESD, Fragmentator, GOAT, IRC, LR-CPCM, L-BFGS, MBIS, meta-GGA TD-DFT gradient, ML-optimized integration grids, 
  MM, NACMEs, nearIR, NEB, NEB-TS, NL-DFT gradient (VV10), 2- and 3-layer-ONIOM, interface openCOSMO-RS, QMMM,   
  Crystal-QMMM, RESP, rigid body optimization, SF, symmetry and pop. for TD-DFT, various functionals, SOLVATOR                                   
                                                                         
[Other institutions]                                                     
  V. Asgeirsson          : NEB                                           
  Christoph Bannwarth    : sTDA-DFT, sTD-DFT, PBEh-3c, B97-3c, D3        
  Giovanni Bistoni       : ETS/NOCV, ADLD/ADEX, COVALED                  
  Martin Brehm           : Molecular dynamics                            
  Ronald Cardenas        : ETS/NOCV                                      
  Martina Colucci        : COVALED                                       
  Sebastian Ehlert       : rSCAN, r2SCAN, r2SCAN-3c, D4, dhf basis sets  
  Marvin Friede          : D4 for Fr, Ra, Ac-Lr                          
  Lars Goerigk           : TD-DFT with DH, B97 family of functionals     
  Stefan Grimme          : VdW corrections, initial TS optimization, DFT functionals, gCP, sTDA/sTD-DF 
  Waldemar Hujo          : DFT-NL                                        
  H. Jonsson             : NEB                                           
  Holger Kruse           : gCP                                           
  Marcel Mueller         : wB97X-3c, vDZP basis set                      
  Hagen Neugebauer       : wr2SCAN, Native XTB                           
  Gianluca Regni         : ADLD/ADEX                                     
  Tobias Risthaus        : pre 6.0 range-separated hybrid DFT and stability analysis
  Lukas Wittmann         : regularized MP2, r2SCAN double-hybrids, wr2SCAN        
                                                                         
We gratefully acknowledge several colleagues who have allowed us to      
interface, adapt or use parts of their codes:                            
  Ed Valeev, F. Pavosevic, A. Kumar             : LibInt (2-el integral package), F12 methods 
  Garnet Chan, S. Sharma, J. Yang, R. Olivares  : DMRG                   
  Ulf Ekstrom                                   : XCFun DFT Library      
  Mihaly Kallay                                 : mrcc  (arbitrary order and MRCC methods)
  Frank Weinhold                                : gennbo (NPA and NBO analysis)           
  Simon Mueller                                 : openCOSMO-RS                            
  Christopher J. Cramer and Donald G. Truhlar   : smd solvation model                     
  S Lehtola, MJT Oliveira, MAL Marques          : LibXC Library                           
  Liviu Ungur et al                             : ANISO software                          


 Your calculation uses the libint2 library for the computation of 2-el integrals
 For citations please refer to: http://libint.valeyev.net

 Your ORCA version has been built with support for libXC version: 7.0.0
 For citations please refer to: https://libxc.gitlab.io

 This ORCA versions uses:
   CBLAS   interface :  Fast vector & matrix operations
   LAPACKE interface :  Fast linear algebra routines
   SCALAPACK package :  Parallel linear algebra routines
   Shared memory     :  Shared parallel matrices
   BLAS/LAPACK       :  OpenBLAS 0.3.29  USE64BITINT DYNAMIC_ARCH NO_AFFINITY SkylakeX SINGLE_THREADED
        Core in use  :  SkylakeX
   Copyright (c) 2011-2014, The OpenBLAS Project


  ***********************************
  * Starting time: Thu Mar 12 11:40:54 2026
  * Host name:     yoda
  * Process ID:    2280510
  * Working dir.:  /home/joaomorado/SN2-reaction/orca_tutorial/neb_wb97x
  ***********************************



***************************************
The coordinates will be read from file: react.xyz
***************************************


Your calculation utilizes the atom-pairwise dispersion correction
with the Becke-Johnson damping scheme (D3BJ)


Your calculation utilizes a Nudged-Elastic-Band implementation
by V. Ásgeirsson, C. Riplinger & H. Jónsson
Please cite in your paper:
Ásgeirsson, V.; Birgisson, B. O.; Bjornsson, R.; Becker, U.; Neese, F.; Riplinger, R.;
Jónsson H. J. Chem. Theory Comput. 2021, 17, 4929-4945
   

Warning: RI is on but no J-basis has been assigned. Assigning Def2/J (nothing to worry about!)
================================================================================

----- Orbital basis set information -----
Your calculation utilizes the basis: def2-TZVPPD
   F. Weigend and R. Ahlrichs, Phys. Chem. Chem. Phys. 7, 3297 (2005).
   D. Rappoport and F. Furche, J. Chem. Phys. 133, 134105 (2010)
   D. Rappoport, J. Chem. Phys. 155, 124102 (2021).

----- AuxJ basis set information -----
Your calculation utilizes the auxiliary basis: def2/J
   H-Rn: F. Weigend, Phys. Chem. Chem. Phys. 8, 1057 (2006).
   Fr-Lr: K. Eichkorn, F. Weigend, O. Treutler, R. Ahlrichs; Theor. Chem. Acc. 97, 119 (1997).

================================================================================
                                        WARNINGS
                       Please study these warnings very carefully!
================================================================================


WARNING: B97M-V or wB97M-V functional requested.
  ===> : libXC variant has now been activated.
         Any manually given DFX/HFX/RangeSep scaling parameters are IGNORED!


WARNING: Geometry Optimization
  ===> : Switching off AutoStart
         For restart on a previous wavefunction, please use MOREAD

================================================================================
                                       INPUT FILE
================================================================================
NAME = neb.inp
|  1> ! wB97M-D3BJ def2-TZVPPD  TIGHTSCF NEB
|  2> %neb
|  3> NEB_End_XYZFile "prod.xyz"
|  4> Nimages 24
|  5> end
|  6> %pal
|  7> nproc 16
|  8> end
|  9> *xyzfile -1 1 react.xyz
| 10> 
| 11> 
| 12>                          ****END OF INPUT****
================================================================================


--------------------------------------------------------------------------------
                        Nudged Elastic Band Calculation
--------------------------------------------------------------------------------

Number of images (incl. end points)     ....  26
Number of intermediate images           ....  24
Number of optimized images              ....  24
Optimization of end points before NEB   ....  NO
Use existing gbw files for MO input     ....  NO
Number of atoms                         ....  6
Number of (active) degrees of freedom   ....  18
Constrained atoms                       ....  None

-----------------------------------------
  REACTANT (ANGSTROEM)
-----------------------------------------
C     -1.744662    -0.437640     0.003409 
Cl     0.087510    -0.436638    -0.005724 
H     -2.083164    -1.230822     0.671675 
H     -2.088398    -0.618739    -1.015729 
H     -2.084525     0.536300     0.358374 
F     -4.405362    -0.447591     0.071906 

-----------------------------------------
  PRODUCT (ANGSTROEM)
-----------------------------------------
C     -2.701566    -0.436584     0.033232 
Cl     0.249840    -0.433905    -0.019871 
H     -2.325120    -1.225043     0.690828 
H     -2.351133    -0.616157    -0.986797 
H     -2.331644     0.532398     0.378988 
F     -4.062580    -0.437932     0.054033 



----------------------
NEB settings
----------------------
Method type                             ....  regular
Free endpoints                          ....  off 
Tangent type                            ....  improved 
Number of intermediate images           ....  24 
Number of images free to move           ....  24 
Spring type for image distribution      ....  distance between adjacent images 
Spring constant                         ....  energy weighted (0.0100 -to- 0.1000) Eh/Bohr^2 
Spring force perp. to the path          ....  none 
Generation of initial path              ....  image dependent pair potential 
Initial path via TS guess               ....  off 

Minimization of RMSD: Rotation          ....  always 
Minimization of RMSD: Translation type  ....  centroid 
Center fixed to origin                  ....  true 
Remove external force                   ....  true 

Reparametrization of the path           ....  off 
Convergence thresholds:
Convergence monitored for               ....  all images
               Max(|F|)                 ....  1.00e-03 Eh/Bohr
               RMS(F)                   ....  5.00e-04 Eh/Bohr
Optimization method:
Method                                  ....  L-BFGS
Max. iterations                         ....  500 
Step size                               ....  1.00 
Maximum allowed step size               ....  0.10 Bohr

LBFGS parameters: 
               Memory                   ....  20 
               Initial step size        ....  0.0010 
               Estimate curvature       ....  YES 
               Reset on maxmove         ....  YES 
               Reparam. on reset        ....  NO 
Generation of  the initial path:
Minimize RMSD between reactant and product configurations     .... done
       RMSD before minimization         ....  0.4983 Bohr
       RMSD after minimization          ....  0.4474 Bohr
Performing linear interpolation         ....  done
Generating initial path 1 out of 129 -> Success!
Displacement along initial path:              1.9258 Bohr
Writing initial trajectory to file      ....  neb_initial_path_trj.xyz



----------------------
NEB OPTIMIZATION      
----------------------

Following output files will be written:
Energy profile during opt. written to    ....  neb.interp
Optimization log-file                    ....  neb.NEB.log
Current trajectory will be written to    ....  neb_MEP_trj.xyz
       and to allxyz file                ....  neb_MEP.allxyz
       and individual images to xyz file ....  neb_im{NIm}.xyz
Trajectory history will be written to    ....  neb_MEP_ALL_trj.xyz
Highest energy image will be written to  ....  neb_NEB-HEI_converged.xyz

Single point energy and gradient calculation of reactant and
product configurations (have to be performed only once)
Properties of fixed NEB end points:
               Reactant:
                         E               ....   -600.134564 Eh
                         RMS(F)          ....      0.004312 Eh/Bohr
                         MAX(|F|)        ....      0.009576 Eh/Bohr
      Warning: Reactant seems to be less converged than convergence tolerances.
               You might want to use free end NEB or preopt_ends true.
               Product:
                         E               ....   -600.173324 Eh
                         RMS(F)          ....      0.012990 Eh/Bohr
                         MAX(|F|)        ....      0.040811 Eh/Bohr
      Warning: Product seems to be less converged than convergence tolerances.
               You might want to use free end NEB or preopt_ends true.



Starting iterations:

Optim.  Iteration  HEI  E(HEI)-E(0)  max(|Fp|)   RMS(Fp)    dS
Convergence thresholds               0.001000   0.000500 
   LBFGS     0      9    0.008247    0.016167   0.004290  1.9258       
   LBFGS     1      9    0.006082    0.014319   0.004023  2.1167       
   LBFGS     2      10   0.004816    0.017196   0.003253  2.4150       
   LBFGS     3      10   0.004510    0.008331   0.002038  2.4611       
   LBFGS     4      10   0.004391    0.009432   0.002093  2.5429       
   LBFGS     5      10   0.004290    0.014379   0.002365  2.6284       
   LBFGS     6      10   0.004169    0.022285   0.002826  2.7794       
   LBFGS     7      10   0.004159    0.020231   0.002621  2.8782       
   LBFGS     8      10   0.004194    0.011747   0.002170  2.9119       
   LBFGS     9      10   0.004170    0.011095   0.002070  2.8822       
   LBFGS    10      10   0.004161    0.010643   0.001621  2.8571       
   LBFGS    11      10   0.004171    0.007889   0.001148  2.8562       
   LBFGS    12      10   0.004160    0.006460   0.000973  2.8766       
Warning: maximum angle between images (23 - 24 - 25): 164.09
   LBFGS    13      10   0.004162    0.004884   0.000665  2.8918       
   LBFGS    14      10   0.004169    0.004134   0.000607  2.8970       
   LBFGS    15      10   0.004169    0.003046   0.000451  2.8924       
   LBFGS    16      10   0.004171    0.001564   0.000352  2.8907       
   LBFGS    17      10   0.004175    0.001741   0.000297  2.8980       
   LBFGS    18      10   0.004180    0.002868   0.000466  2.9253       
   LBFGS    19      10   0.004185    0.002599   0.000521  2.9441       
   LBFGS    20      10   0.004194    0.002684   0.000611  2.9992       
   LBFGS    21      10   0.004191    0.006269   0.000746  3.0255       
   LBFGS    22      10   0.004191    0.010158   0.000788  2.9988       
Warning: maximum angle between images (23 - 24 - 25): 165.98
   LBFGS    23      10   0.004197    0.002820   0.000508  2.9495       
   LBFGS    24      10   0.004188    0.004332   0.000431  2.9542       
   LBFGS    25      10   0.004193    0.002248   0.000279  2.9598       
   LBFGS    26      10   0.004195    0.001492   0.000176  2.9578       
   LBFGS    27      10   0.004194    0.002405   0.000278  2.9502       
   LBFGS    28      10   0.004197    0.002118   0.000408  2.9314       
   LBFGS    29      10   0.004192    0.007538   0.000713  2.8908       
   LBFGS    30      10   0.004203    0.002319   0.000440  2.8557       

Possible intermediate minimum found at image(s): 2 
  => have a look at the .interp file.
  => it is often a good idea to divide the path calculation into smaller fragments. 

   LBFGS    31      10   0.004198    0.002418   0.000364  2.8339       
   LBFGS    32      10   0.004202    0.003331   0.000422  2.7948       
Warning: maximum angle between images (23 - 24 - 25): 158.51
   LBFGS    33      10   0.004200    0.002569   0.000487  2.7571       
   LBFGS    34      10   0.004191    0.006619   0.000707  2.6901       
   LBFGS    35      10   0.004198    0.004235   0.000547  2.6611       
   LBFGS    36      10   0.004191    0.003819   0.000488  2.6439       
   LBFGS    37      10   0.004186    0.004916   0.000522  2.6046       
   LBFGS    38      10   0.004187    0.009632   0.000766  2.5786       
   LBFGS    39      10   0.004192    0.004810   0.000439  2.5717       
   LBFGS    40      10   0.004191    0.003112   0.000282  2.5620       
   LBFGS    41      10   0.004191    0.001234   0.000166  2.5583       
   LBFGS    42      10   0.004193    0.001299   0.000165  2.5509       
   LBFGS    43      10   0.004190    0.001742   0.000198  2.5390       
   LBFGS    44      10   0.004198    0.004222   0.000411  2.5131       
   LBFGS    45      10   0.004187    0.001613   0.000251  2.5016       
   LBFGS    46      10   0.004187    0.002431   0.000314  2.4695       
   LBFGS    47      10   0.004186    0.003049   0.000374  2.4411       
   LBFGS    48      10   0.004194    0.003195   0.000412  2.3894       
   LBFGS    49      10   0.004190    0.007700   0.000773  2.3750       
   LBFGS    50      10   0.004194    0.001683   0.000226  2.3871       
   LBFGS    51      10   0.004188    0.000645   0.000123  2.3875       

                                .--------------------.
          ----------------------|   NEB convergence  |-------------------------
          Item                value                   Tolerance       Converged
          ---------------------------------------------------------------------
          RMS(Fp)             0.0001225187            0.0005000000      YES
          MAX(|Fp|)           0.0006453463            0.0010000000      YES
          ---------------------------------------------------------------------

The elastic band has converged successfully in 51 iterations!


                    *********************H U R R A Y*********************
                    ***        THE NEB OPTIMIZATION HAS CONVERGED     ***
                    *****************************************************



---------------------------------------------------------------
                         PATH SUMMARY              
---------------------------------------------------------------
All forces in Eh/Bohr.

Image Dist.(Ang.)    E(Eh)   dE(kcal/mol)  max(|Fp|)  RMS(Fp)
  0     0.000    -600.13456      0.00       0.00795   0.00406
  1     0.122    -600.13529     -0.45       0.00007   0.00003
  2     0.250    -600.13458     -0.01       0.00033   0.00013
  3     0.308    -600.13364      0.58       0.00007   0.00002
  4     0.345    -600.13281      1.10       0.00023   0.00008
  5     0.375    -600.13209      1.55       0.00002   0.00001
  6     0.401    -600.13148      1.93       0.00002   0.00001
  7     0.424    -600.13100      2.24       0.00003   0.00001
  8     0.446    -600.13066      2.45       0.00003   0.00001
  9     0.466    -600.13045      2.58       0.00003   0.00001
 10     0.485    -600.13038      2.63       0.00003   0.00001 <= HEI
 11     0.503    -600.13041      2.60       0.00003   0.00001
 12     0.522    -600.13059      2.50       0.00003   0.00001
 13     0.543    -600.13095      2.27       0.00003   0.00001
 14     0.566    -600.13158      1.87       0.00022   0.00007
 15     0.594    -600.13268      1.18       0.00043   0.00013
 16     0.628    -600.13450      0.04       0.00055   0.00016
 17     0.749    -600.14538     -6.79       0.00051   0.00016
 18     0.864    -600.15907    -15.38       0.00022   0.00008
 19     0.952    -600.16794    -20.95       0.00059   0.00021
 20     1.029    -600.17223    -23.64       0.00028   0.00016
 21     1.101    -600.17435    -24.96       0.00065   0.00037
 22     1.157    -600.17543    -25.64       0.00049   0.00017
 23     1.200    -600.17605    -26.03       0.00037   0.00021
 24     1.216    -600.17586    -25.91       0.00030   0.00010
 25     1.263    -600.17332    -24.32       0.02186   0.00677

Straight line distance between images along the path:
        D( 0- 1) =   0.1224 Ang.
        D( 1- 2) =   0.1278 Ang.
        D( 2- 3) =   0.0576 Ang.
        D( 3- 4) =   0.0373 Ang.
        D( 4- 5) =   0.0297 Ang.
        D( 5- 6) =   0.0261 Ang.
        D( 6- 7) =   0.0237 Ang.
        D( 7- 8) =   0.0216 Ang.
        D( 8- 9) =   0.0200 Ang.
        D( 9-10) =   0.0189 Ang.
        D(10-11) =   0.0183 Ang.
        D(11-12) =   0.0188 Ang.
        D(12-13) =   0.0206 Ang.
        D(13-14) =   0.0235 Ang.
        D(14-15) =   0.0281 Ang.
        D(15-16) =   0.0338 Ang.
        D(16-17) =   0.1214 Ang.
        D(17-18) =   0.1141 Ang.
        D(18-19) =   0.0887 Ang.
        D(19-20) =   0.0767 Ang.
        D(20-21) =   0.0717 Ang.
        D(21-22) =   0.0560 Ang.
        D(22-23) =   0.0434 Ang.
        D(23-24) =   0.0166 Ang.
        D(24-25) =   0.0469 Ang.

---------------------------------------------------------------
           INFORMATION ABOUT HIGHEST ENERGY IMAGE
---------------------------------------------------------------

Highest energy image                      ....  10 
Energy                                    ....  -600.13037673 Eh
Max. abs. force                           ....  5.0557e-04 Eh/Bohr

-----------------------------------------
  HIGHEST ENERGY IMAGE (ANGSTROEM)
-----------------------------------------
C      0.057008     0.000100    -0.000851 
Cl     2.164194     0.004538    -0.032469 
H     -0.060997    -0.812439     0.683921 
H     -0.088711    -0.185475    -1.043651 
H     -0.069817     0.997370     0.363060 
F     -2.001677    -0.004094     0.029989 

-----------------------------------------
  FORCES (Eh/Bohr)
-----------------------------------------
C      0.000506     0.000001    -0.000010 
Cl    -0.000178    -0.000001    -0.000005 
H     -0.000057     0.000035    -0.000029 
H     -0.000019     0.000010     0.000050 
H     -0.000044    -0.000046    -0.000011 
F     -0.000209     0.000001     0.000004 

-----------------------------------------
  UNIT TANGENT
-----------------------------------------
C     -0.847216    -0.001861     0.012933 
Cl     0.319033     0.000626    -0.004842 
H      0.044520    -0.056792     0.047215 
H      0.042461    -0.012822    -0.073946 
H      0.043839     0.070077     0.024692 
F      0.397363     0.000771    -0.006052 
 => Unit tangent is an approximation to the TS mode at the saddle point
----------
STATISTICS
----------

For the individual parts of the NEB, NEB-CI or NEB-TS run:

Number of iterations:
     NEB                               ... 52  100.0%
Number of SCF / gradient calculations:
     NEB                               ... 1298  100.0%

----------
 TIMINGS
----------

For the individual parts of the NEB, NEB-CI or NEB-TS run:

Total                                  ...     4094.147 sec
NEB                                    ...     4094.147 sec  100.0%


--------------------------------
SUGGESTED CITATIONS FOR THIS RUN
--------------------------------

Below you find a list of papers that are relevant to this ORCA run
We neither can nor want to force you to cite these papers, but we appreciate if you do
You receive ORCA, which is the product of decades of hard work by many enthusiastic individuals, for free
The only thing we kindly ask in return is that you cite our papers,
We deeply appreciate it, if you show your appreciation for ORCA by not just citing the generic ORCA reference.

Please note that relegating all ORCA citations to the supporting information does *not* help us.
SI sections are not indexed - citations you put there will not count into any citation statistics
But we need these citations in order to attract the funding resources that allow us to do what we are doing

Therefore, if you are a happy ORCA user, please consider citing a few of the papers listed below in the main body of your paper

In addition to the list printed below, the program has created the file neb.bibtex that contains the list in bibtex format
You can import this file easily into all common literature databanks and citation aid programs


List of essential papers. We consider these as the minimum necessary citations

  1. Neese, F.
     Software update: the ORCA program system, version 6.0
     WIRES Comput. Molec. Sci. 2025 15(1), e70019
     doi.org/10.1002/wcms.7019

List of papers to cite with high priority. The work reported in these papers was absolutely
necessary for this run to complete.
Our perspective: the developers of density functionals and basis sets usually get cited in chemistry papers
Good! But without the algorithms to do something with them, the functionals or basis sets would not do anything.
Hence, in our opinion, the algorithm design and method developments papers are equally worthy of getting cited

  1. Neese, F.
     An improvement of the resolution of the identity approximation for the formation of the Coulomb matrix
     J. Comp. Chem. 2003 24(14), 1740-1747
     doi.org/10.1002/jcc.10318
  2. Neese, F.; Wennmohs, F.; Hansen, A.; Becker, U.
     Efficient, approximate and parallel Hartree-Fock and hybrid DFT calculations. A 'chain-of-spheres' algorithm for the Hartree-Fock exchange
     Chem. Phys. 2009 356(1-3), 98-109
     doi.org/10.1016/j.chemphys.2008.10.036
  3. Lehtola, S.; Steigemann, C.; Oliveira, M.; Marques, M.
     Recent developments in Libxc - A comprehensive library of functionals for density functional theory
     Software X 2018 7 , 
     doi.org/10.1016/j.softx.2017.11.002
  4. Asgeirsson, V.; Orri Birgisson, B.; Björnsson, R.; Becker, U.; Neese, F.; Riplinger, C.; Jonsson, H.
     Nudged Elastic Band Method for Molecular Reactions Using Energy-Weighted Springs Combined with Eigenvector Following
     J. Chem. Theory Comput. 2021 17(8), 4929-4945
     doi.org/10.1021/acs.jctc.1c00462
  5. Helmich-Paris, B.; de Souza, B.; Neese, F.; Izsák, R.
     An improved chain of spheres for exchange algorithm
     J. Chem. Phys. 2021 155(10), 104109
     doi.org/10.1063/5.0058766
  6. Neese, F.
     The SHARK Integral Generation and Digestion System
     J. Comp. Chem. 2022 44(3), 381
     doi.org/10.1002/jcc.26942
  7. Schmerwitz, Y.L.A.; Asgeirsson, V.; Jonsson, H.
     Improved Initialization of Optimal Path Calculations
     Using Sequential Traversal over the
     Image-Dependent Pair Potential Surface
     J. Chem. Theory Comput. 2023 20(1), 155-163
     doi.org/10.1021/acs.jctc.3c01111

List of suggested additional citations. These are papers that are important in the 'surrounding' of 
of this run, or papers that preceded the highly important papers. If you like your results we are grateful for a citation.

  1. Izsak, R.; Neese, F.
     An overlap fitted chain of spheres exchange method
     J. Chem. Phys. 2011 135 , 144105
     doi.org/10.1063/1.3646921
  2. Izsak, R.; Hansen, A.; Neese, F.
     The resolution of identity and chain of spheres approximations for the LPNO-CCSD singles Fock term
     Molec. Phys. 2012 110 , 2413-2417
     doi.org/10.1080/00268976.2012.687466
  3. Neese, F.
     The ORCA program system
     WIRES Comput. Molec. Sci. 2012 2(1), 73-78
     doi.org/10.1002/wcms.81
  4. Izsak, R.; Neese, F.; Klopper, W.
     Robust fitting techniques in the chain of spheres approximation to the Fock exchange: The role of the complementary space
     J. Chem. Phys. 2013 139 , 
     doi.org/10.1063/1.4819264
  5. Neese, F.
     Software update: the ORCA program system, version 4.0
     WIRES Comput. Molec. Sci. 2018 8(1), 1-6
     doi.org/10.1002/wcms.1327
  6. Neese, F.; Wennmohs, F.; Becker, U.; Riplinger, C.
     The ORCA quantum chemistry program package
     J. Chem. Phys. 2020 152(22), 224108
     doi.org/10.1063/5.0004608
  7. Neese, F.
     Software update: The ORCA program system—Version 5.0
     WIRES Comput. Molec. Sci. 2022 12(1), e1606
     doi.org/10.1002/wcms.1606

List of optional additional citations

  1. Neese, F.
     Approximate second-order SCF convergence for spin unrestricted wavefunctions
     Chem. Phys. Lett. 2000 325(1-3), 93-98
     doi.org/10.1016/s0009-2614(00)00662-x

Timings for individual modules:

Sum of individual times          ...     4109.963 sec (=  68.499 min)
Startup calculation              ...        1.152 sec (=   0.019 min)   0.0 %
SCF iterations                   ...       10.456 sec (=   0.174 min)   0.3 %
SCF Gradient evaluation          ...        4.207 sec (=   0.070 min)   0.1 %
NEB Iterations                   ...     4094.147 sec (=  68.236 min)  99.6 %
                             ****ORCA TERMINATED NORMALLY****
TOTAL RUN TIME: 0 days 1 hours 8 minutes 14 seconds 695 msec
