6
Coordinates from ORCA-job neb_MEP_ALL E -600.134564299856
  C       0.308438      0.001548     -0.010576
  Cl      2.140610      0.002551     -0.019709
  H      -0.030064     -0.791634      0.657690
  H      -0.035298     -0.179551     -1.029714
  H      -0.031425      0.975489      0.344389
  F      -2.352262     -0.008402      0.057921
6
Coordinates from ORCA-job neb_MEP_ALL E -600.134552510563
  C       0.272967      0.001328     -0.008933
  Cl      2.139950      0.002686     -0.020742
  H      -0.031431     -0.776734      0.646022
  H      -0.037894     -0.176507     -1.010626
  H      -0.033200      0.957277      0.338836
  F      -2.310391     -0.008049      0.055442
6
Coordinates from ORCA-job neb_MEP_ALL E -600.133910607440
  C       0.253414      0.001207     -0.008148
  Cl      2.144314      0.002815     -0.021765
  H      -0.038221     -0.783718      0.652595
  H      -0.045992     -0.178132     -1.018399
  H      -0.040440      0.965535      0.342662
  F      -2.273075     -0.007706      0.053056
6
Coordinates from ORCA-job neb_MEP_ALL E -600.132825365097
  C       0.230409      0.001085     -0.007404
  Cl      2.151788      0.002929     -0.022655
  H      -0.043427     -0.789713      0.658229
  H      -0.052383     -0.179528     -1.025094
  H      -0.046054      0.972634      0.345940
  F      -2.240332     -0.007407      0.050984
6
Coordinates from ORCA-job neb_MEP_ALL E -600.131471267220
  C       0.204572      0.000967     -0.006675
  Cl      2.161720      0.003026     -0.023430
  H      -0.047239     -0.794683      0.662903
  H      -0.057253     -0.180688     -1.030656
  H      -0.050235      0.978525      0.348662
  F      -2.211564     -0.007147      0.049196
6
Coordinates from ORCA-job neb_MEP_ALL E -600.130020292973
  C       0.176557      0.000852     -0.005955
  Cl      2.173536      0.003110     -0.024104
  H      -0.049889     -0.798693      0.666681
  H      -0.060843     -0.181627     -1.035146
  H      -0.053216      0.983282      0.350869
  F      -2.186145     -0.006923      0.047656
6
Coordinates from ORCA-job neb_MEP_ALL E -600.128637112520
  C       0.146941      0.000732     -0.005229
  Cl      2.186450      0.003183     -0.024687
  H      -0.051559     -0.801826      0.669640
  H      -0.063340     -0.182362     -1.038654
  H      -0.055176      0.987002      0.352602
  F      -2.163317     -0.006730      0.046329
6
Coordinates from ORCA-job neb_MEP_ALL E -600.127476321004
  C       0.116253      0.000609     -0.004510
  Cl      2.200217      0.003247     -0.025192
  H      -0.052481     -0.804266      0.671948
  H      -0.064990     -0.182934     -1.041385
  H      -0.056357      0.989904      0.353956
  F      -2.142642     -0.006560      0.045183
6
Coordinates from ORCA-job neb_MEP_ALL E -600.126668205746
  C       0.084915      0.000486     -0.003797
  Cl      2.214672      0.003302     -0.025638
  H      -0.052856     -0.806203      0.673778
  H      -0.066003     -0.183388     -1.043561
  H      -0.056961      0.992216      0.355031
  F      -2.123767     -0.006413      0.044188
6
Coordinates from ORCA-job neb_MEP_ALL E -600.126329641267
  C       0.052589      0.000365     -0.003066
  Cl      2.229569      0.003353     -0.026045
  H      -0.052806     -0.807835      0.675307
  H      -0.066520     -0.183771     -1.045412
  H      -0.057109      0.994171      0.355925
  F      -2.105723     -0.006282      0.043290
6
Coordinates from ORCA-job neb_MEP_ALL E -600.126581524631
  C       0.019391      0.000234     -0.002315
  Cl      2.244200      0.003401     -0.026403
  H      -0.052284     -0.808969      0.676374
  H      -0.066492     -0.184039     -1.046692
  H      -0.056753      0.995537      0.356555
  F      -2.088063     -0.006164      0.042482
6
Coordinates from ORCA-job neb_MEP_ALL E -600.127501074618
  C      -0.012783      0.000109     -0.001597
  Cl      2.257778      0.003442     -0.026700
  H      -0.051541     -0.809960      0.677279
  H      -0.066163     -0.184271     -1.047845
  H      -0.056152      0.996742      0.357081
  F      -2.071139     -0.006061      0.041782
6
Coordinates from ORCA-job neb_MEP_ALL E -600.129135755937
  C      -0.044866     -0.000002     -0.000909
  Cl      2.270826      0.003478     -0.026978
  H      -0.050690     -0.811018      0.678235
  H      -0.065694     -0.184519     -1.049088
  H      -0.055429      0.998025      0.357630
  F      -2.054146     -0.005965      0.041111
6
Coordinates from ORCA-job neb_MEP_ALL E -600.131459221733
  C      -0.077089     -0.000103     -0.000245
  Cl      2.283291      0.003515     -0.027256
  H      -0.049729     -0.812195      0.679298
  H      -0.065096     -0.184795     -1.050469
  H      -0.054591      0.999445      0.358237
  F      -2.036786     -0.005867      0.040435
6
Coordinates from ORCA-job neb_MEP_ALL E -600.134481442463
  C      -0.109319     -0.000200      0.000410
  Cl      2.294980      0.003551     -0.027528
  H      -0.048735     -0.813370      0.680362
  H      -0.064433     -0.185067     -1.051842
  H      -0.053710      1.000856      0.358841
  F      -2.018784     -0.005769      0.039758
6
Coordinates from ORCA-job neb_MEP_ALL E -600.138167139351
  C      -0.149652     -0.000312      0.001212
  Cl      2.309467      0.003606     -0.027961
  H      -0.047792     -0.814205      0.681241
  H      -0.063952     -0.185273     -1.052636
  H      -0.052927      1.001809      0.359398
  F      -1.995143     -0.005625      0.038745
6
Coordinates from ORCA-job neb_MEP_ALL E -600.142449907214
  C      -0.184131     -0.000399      0.001830
  Cl      2.321306      0.003648     -0.028287
  H      -0.046825     -0.814941      0.681987
  H      -0.063306     -0.185448     -1.053355
  H      -0.052071      1.002654      0.359858
  F      -1.974972     -0.005515      0.037966
6
Coordinates from ORCA-job neb_MEP_ALL E -600.147236074848
  C      -0.218550     -0.000479      0.002395
  Cl      2.333622      0.003694     -0.028656
  H      -0.045977     -0.815231      0.682394
  H      -0.062780     -0.185523     -1.053432
  H      -0.051337      1.002936      0.360157
  F      -1.954978     -0.005398      0.037143
6
Coordinates from ORCA-job neb_MEP_ALL E -600.152363672451
  C      -0.252783     -0.000560      0.002942
  Cl      2.347141      0.003752     -0.029122
  H      -0.045446     -0.814738      0.682206
  H      -0.062606     -0.185423     -1.052398
  H      -0.050937      1.002233      0.360174
  F      -1.935370     -0.005264      0.036198
6
Coordinates from ORCA-job neb_MEP_ALL E -600.157631413259
  C      -0.286372     -0.000643      0.003468
  Cl      2.362637      0.003825     -0.029719
  H      -0.045497     -0.813132      0.681174
  H      -0.063074     -0.185078     -1.049804
  H      -0.051148      1.000133      0.359791
  F      -1.916546     -0.005104      0.035090
6
Coordinates from ORCA-job neb_MEP_ALL E -600.162771484410
  C      -0.318684     -0.000725      0.003978
  Cl      2.381323      0.003918     -0.030496
  H      -0.046502     -0.810047      0.679022
  H      -0.064586     -0.184409     -1.045148
  H      -0.052349      0.996177      0.358880
  F      -1.899202     -0.004914      0.033763
6
Coordinates from ORCA-job neb_MEP_ALL E -600.167472829969
  C      -0.348935     -0.000805      0.004509
  Cl      2.404615      0.004041     -0.031518
  H      -0.048916     -0.805194      0.675540
  H      -0.067616     -0.183358     -1.038024
  H      -0.054998      0.990003      0.357348
  F      -1.884149     -0.004686      0.032144
6
Coordinates from ORCA-job neb_MEP_ALL E -600.171375866034
  C      -0.376103     -0.000892      0.005102
  Cl      2.433846      0.004201     -0.032853
  H      -0.053319     -0.798336      0.670567
  H      -0.072756     -0.181878     -1.028099
  H      -0.059684      0.981311      0.355132
  F      -1.871984     -0.004406      0.030151
6
Coordinates from ORCA-job neb_MEP_ALL E -600.174047009752
  C      -0.398840     -0.000996      0.005832
  Cl      2.471069      0.004414     -0.034611
  H      -0.060503     -0.789169      0.663906
  H      -0.080833     -0.179910     -1.014925
  H      -0.067209      0.969717      0.352161
  F      -1.863684     -0.004055      0.027637
6
Coordinates from ORCA-job neb_MEP_ALL E -600.174931556636
  C      -0.415351     -0.001130      0.006811
  Cl      2.518900      0.004696     -0.036935
  H      -0.071520     -0.777366      0.655361
  H      -0.092956     -0.177396     -0.998016
  H      -0.078647      0.954802      0.348376
  F      -1.860425     -0.003605      0.024402
6
Coordinates from ORCA-job neb_MEP_ALL E -600.173324335993
  C      -0.447888     -0.000812      0.006775
  Cl      2.503664      0.004713     -0.037180
  H      -0.072722     -0.788951      0.665484
  H      -0.094123     -0.179979     -1.012175
  H      -0.079973      0.968502      0.353738
  F      -1.808958     -0.003473      0.023358
6
Coordinates from ORCA-job neb_MEP_ALL E -600.134564299856
  C       0.308438      0.001548     -0.010576
  Cl      2.140610      0.002551     -0.019709
  H      -0.030064     -0.791634      0.657690
  H      -0.035298     -0.179551     -1.029714
  H      -0.031425      0.975489      0.344389
  F      -2.352262     -0.008402      0.057921
6
Coordinates from ORCA-job neb_MEP_ALL E -600.134608475730
  C       0.275222      0.001467     -0.009679
  Cl      2.123822      0.002747     -0.021143
  H      -0.035900     -0.770004      0.641050
  H      -0.042756     -0.175036     -1.000703
  H      -0.037768      0.948661      0.336569
  F      -2.282620     -0.007834      0.053905
6
Coordinates from ORCA-job neb_MEP_ALL E -600.134716190624
  C       0.269615      0.001398     -0.009156
  Cl      2.117394      0.002870     -0.022099
  H      -0.043636     -0.779689      0.649886
  H      -0.052053     -0.177199     -1.011572
  H      -0.046026      0.960096      0.341530
  F      -2.245295     -0.007475      0.051411
6
Coordinates from ORCA-job neb_MEP_ALL E -600.134293942195
  C       0.246247      0.001273     -0.008217
  Cl      2.118041      0.003015     -0.023214
  H      -0.050331     -0.785706      0.655756
  H      -0.060551     -0.178607     -1.017881
  H      -0.053329      0.967080      0.345028
  F      -2.200077     -0.007056      0.048528
6
Coordinates from ORCA-job neb_MEP_ALL E -600.133459543967
  C       0.219626      0.001176     -0.007445
  Cl      2.123826      0.003123     -0.024068
  H      -0.054838     -0.790880      0.660701
  H      -0.066533     -0.179796     -1.023390
  H      -0.058342      0.973103      0.347919
  F      -2.163739     -0.006726      0.046283
6
Coordinates from ORCA-job neb_MEP_ALL E -600.132344995567
  C       0.190355      0.001099     -0.006807
  Cl      2.133434      0.003202     -0.024702
  H      -0.057540     -0.795185      0.664729
  H      -0.070410     -0.180762     -1.028015
  H      -0.061445      0.978119      0.350224
  F      -2.134394     -0.006473      0.044572
6
Coordinates from ORCA-job neb_MEP_ALL E -600.131126773972
  C       0.159457      0.001046     -0.006319
  Cl      2.145477      0.003259     -0.025150
  H      -0.058843     -0.798781      0.668004
  H      -0.072629     -0.181536     -1.031872
  H      -0.063061      0.982292      0.352040
  F      -2.110401     -0.006280      0.043297
6
Coordinates from ORCA-job neb_MEP_ALL E -600.129972281779
  C       0.127739      0.001018     -0.005952
  Cl      2.159203      0.003296     -0.025454
  H      -0.059130     -0.801847      0.670718
  H      -0.073640     -0.182168     -1.035156
  H      -0.063603      0.985834      0.353487
  F      -2.090568     -0.006134      0.042358
6
Coordinates from ORCA-job neb_MEP_ALL E -600.129036780046
  C       0.095777      0.001012     -0.005670
  Cl      2.173779      0.003316     -0.025655
  H      -0.058668     -0.804472      0.672973
  H      -0.073748     -0.182682     -1.037957
  H      -0.063340      0.988852      0.354641
  F      -2.073799     -0.006027      0.041668
6
Coordinates from ORCA-job neb_MEP_ALL E -600.128482305464
  C       0.063030      0.001015     -0.005453
  Cl      2.188663      0.003328     -0.025781
  H      -0.057615     -0.806709      0.674839
  H      -0.073160     -0.183094     -1.040292
  H      -0.062445      0.991404      0.355552
  F      -2.058473     -0.005944      0.041135
6
Coordinates from ORCA-job neb_MEP_ALL E -600.128495105537
  C       0.029300      0.001035     -0.005301
  Cl      2.203194      0.003333     -0.025825
  H      -0.055965     -0.808514      0.676280
  H      -0.071891     -0.183392     -1.042085
  H      -0.060916      0.993416      0.356200
  F      -2.043721     -0.005879      0.040731
6
Coordinates from ORCA-job neb_MEP_ALL E -600.129158974730
  C      -0.002503      0.001064     -0.005201
  Cl      2.216196      0.003326     -0.025778
  H      -0.054058     -0.809849      0.677277
  H      -0.070283     -0.183584     -1.043364
  H      -0.059108      0.994877      0.356592
  F      -2.030244     -0.005834      0.040475
6
Coordinates from ORCA-job neb_MEP_ALL E -600.130518844745
  C      -0.033741      0.001067     -0.005044
  Cl      2.228432      0.003312     -0.025699
  H      -0.052034     -0.810753      0.677900
  H      -0.068541     -0.183697     -1.044215
  H      -0.057177      0.995868      0.356799
  F      -2.016938     -0.005796      0.040259
6
Coordinates from ORCA-job neb_MEP_ALL E -600.132593459590
  C      -0.065168      0.001039     -0.004777
  Cl      2.240134      0.003296     -0.025610
  H      -0.049955     -0.811258      0.678189
  H      -0.066744     -0.183743     -1.044688
  H      -0.055194      0.996424      0.356851
  F      -2.003073     -0.005757      0.040035
6
Coordinates from ORCA-job neb_MEP_ALL E -600.135364197892
  C      -0.097684      0.000990     -0.004417
  Cl      2.251498      0.003279     -0.025521
  H      -0.047852     -0.811583      0.678335
  H      -0.064922     -0.183766     -1.045015
  H      -0.053187      0.996792      0.356845
  F      -1.987853     -0.005713      0.039774
6
Coordinates from ORCA-job neb_MEP_ALL E -600.139756842657
  C      -0.145934      0.000857     -0.003585
  Cl      2.267379      0.003274     -0.025538
  H      -0.045360     -0.811876      0.678503
  H      -0.062853     -0.183813     -1.045402
  H      -0.050838      0.997170      0.356896
  F      -1.962394     -0.005612      0.039125
6
Coordinates from ORCA-job neb_MEP_ALL E -600.144176904215
  C      -0.181692      0.000738     -0.002811
  Cl      2.278943      0.003273     -0.025586
  H      -0.043880     -0.811144      0.677869
  H      -0.061710     -0.183666     -1.044583
  H      -0.049474      0.996323      0.356572
  F      -1.942188     -0.005524      0.038539
6
Coordinates from ORCA-job neb_MEP_ALL E -600.149047308405
  C      -0.217398      0.000600     -0.001927
  Cl      2.289688      0.003264     -0.025565
  H      -0.042263     -0.810802      0.677508
  H      -0.060281     -0.183628     -1.044491
  H      -0.047917      0.996023      0.356380
  F      -1.921828     -0.005457      0.038095
6
Coordinates from ORCA-job neb_MEP_ALL E -600.154179171610
  C      -0.253011      0.000465     -0.001005
  Cl      2.301160      0.003263     -0.025610
  H      -0.040810     -0.810503      0.677222
  H      -0.058964     -0.183623     -1.044480
  H      -0.046508      0.995785      0.356263
  F      -1.901868     -0.005387      0.037610
6
Coordinates from ORCA-job neb_MEP_ALL E -600.159330520464
  C      -0.288483      0.000313     -0.000010
  Cl      2.314802      0.003284     -0.025840
  H      -0.039709     -0.809872      0.676761
  H      -0.058002     -0.183562     -1.043956
  H      -0.045459      0.995127      0.356114
  F      -1.883149     -0.005290      0.036931
6
Coordinates from ORCA-job neb_MEP_ALL E -600.164159197827
  C      -0.324027      0.000147      0.001039
  Cl      2.333199      0.003341     -0.026387
  H      -0.039394     -0.808243      0.675654
  H      -0.057904     -0.183301     -1.041932
  H      -0.045244      0.993194      0.355729
  F      -1.866630     -0.005138      0.035897
6
Coordinates from ORCA-job neb_MEP_ALL E -600.168378545602
  C      -0.359218     -0.000020      0.002091
  Cl      2.361001      0.003457     -0.027450
  H      -0.040837     -0.804476      0.673081
  H      -0.059750     -0.182591     -1.036745
  H      -0.046867      0.988538      0.354742
  F      -1.854329     -0.004908      0.034280
6
Coordinates from ORCA-job neb_MEP_ALL E -600.171770274202
  C      -0.391500     -0.000178      0.003206
  Cl      2.403056      0.003663     -0.029264
  H      -0.045406     -0.797755      0.668482
  H      -0.064957     -0.181264     -1.027184
  H      -0.051715      0.980104      0.352923
  F      -1.849477     -0.004570      0.031838
6
Coordinates from ORCA-job neb_MEP_ALL E -600.174157797175
  C      -0.417799     -0.000344      0.004503
  Cl      2.463257      0.003986     -0.032047
  H      -0.054608     -0.788140      0.662024
  H      -0.075044     -0.179353     -1.013227
  H      -0.061306      0.967938      0.350423
  F      -1.854499     -0.004087      0.028324
6
Coordinates from ORCA-job neb_MEP_ALL E -600.175222963782
  C      -0.422650     -0.000648      0.006103
  Cl      2.544522      0.004422     -0.035639
  H      -0.067811     -0.774113      0.652213
  H      -0.089287     -0.176540     -0.993364
  H      -0.074914      0.950406      0.346416
  F      -1.889860     -0.003527      0.024270
6
Coordinates from ORCA-job neb_MEP_ALL E -600.173324335993
  C      -0.447892     -0.000763      0.006568
  Cl      2.503682      0.004439     -0.036018
  H      -0.073117     -0.788944      0.665450
  H      -0.093673     -0.179969     -1.012218
  H      -0.080031      0.968511      0.353701
  F      -1.808969     -0.003274      0.022518
6
Coordinates from ORCA-job neb_MEP_ALL E -600.134564299856
  C       0.308438      0.001548     -0.010576
  Cl      2.140610      0.002551     -0.019709
  H      -0.030064     -0.791634      0.657690
  H      -0.035298     -0.179551     -1.029714
  H      -0.031425      0.975489      0.344389
  F      -2.352262     -0.008402      0.057921
6
Coordinates from ORCA-job neb_MEP_ALL E -600.134320136396
  C       0.288520      0.001337     -0.008934
  Cl      2.122430      0.002792     -0.021451
  H      -0.044330     -0.782248      0.651661
  H      -0.052011     -0.178000     -1.016750
  H      -0.046448      0.963831      0.342457
  F      -2.268162     -0.007712      0.053018
6
Coordinates from ORCA-job neb_MEP_ALL E -600.135113126902
  C       0.278280      0.001202     -0.008129
  Cl      2.121464      0.002865     -0.022029
  H      -0.046028     -0.783606      0.653113
  H      -0.054829     -0.178306     -1.017947
  H      -0.048542      0.965352      0.343358
  F      -2.250346     -0.007507      0.051635
6
Coordinates from ORCA-job neb_MEP_ALL E -600.135018367646
  C       0.254311      0.001053     -0.007142
  Cl      2.118347      0.003039     -0.023334
  H      -0.053439     -0.788640      0.658319
  H      -0.064431     -0.179483     -1.022620
  H      -0.056703      0.971034      0.346577
  F      -2.198085     -0.007002      0.048200
6
Coordinates from ORCA-job neb_MEP_ALL E -600.134505921993
  C       0.226169      0.000918     -0.006261
  Cl      2.122230      0.003163     -0.024278
  H      -0.058110     -0.793420      0.663005
  H      -0.070834     -0.180587     -1.027500
  H      -0.061965      0.976555      0.349376
  F      -2.157490     -0.006629      0.045659
6
Coordinates from ORCA-job neb_MEP_ALL E -600.133635570343
  C       0.195584      0.000792     -0.005488
  Cl      2.130890      0.003250     -0.024925
  H      -0.060673     -0.798103      0.667352
  H      -0.074711     -0.181649     -1.032662
  H      -0.064974      0.982072      0.351864
  F      -2.126117     -0.006362      0.043858
6
Coordinates from ORCA-job neb_MEP_ALL E -600.132548889110
  C       0.163434      0.000655     -0.004714
  Cl      2.142816      0.003310     -0.025355
  H      -0.061659     -0.802442      0.671216
  H      -0.076701     -0.182631     -1.037773
  H      -0.066307      0.987281      0.354010
  F      -2.101583     -0.006173      0.042617
6
Coordinates from ORCA-job neb_MEP_ALL E -600.131429730430
  C       0.130918      0.000497     -0.003893
  Cl      2.156388      0.003349     -0.025651
  H      -0.061534     -0.806204      0.674468
  H      -0.077346     -0.183494     -1.042470
  H      -0.066458      0.991893      0.355788
  F      -2.081967     -0.006040      0.041759
6
Coordinates from ORCA-job neb_MEP_ALL E -600.130476589381
  C       0.098445      0.000310     -0.003019
  Cl      2.170264      0.003378     -0.025870
  H      -0.060674     -0.809287      0.677075
  H      -0.077086     -0.184215     -1.046521
  H      -0.065811      0.995758      0.357206
  F      -2.065139     -0.005945      0.041128
6
Coordinates from ORCA-job neb_MEP_ALL E -600.129859262207
  C       0.065752      0.000104     -0.002031
  Cl      2.183936      0.003406     -0.026052
  H      -0.059324     -0.811754      0.679122
  H      -0.076225     -0.184816     -1.049979
  H      -0.064627      0.998929      0.358321
  F      -2.049512     -0.005869      0.040619
6
Coordinates from ORCA-job neb_MEP_ALL E -600.129753112166
  C       0.032837     -0.000147     -0.000917
  Cl      2.197302      0.003435     -0.026206
  H      -0.057622     -0.813636      0.680645
  H      -0.074927     -0.185307     -1.052882
  H      -0.063057      1.001460      0.359166
  F      -2.034533     -0.005805      0.040195
6
Coordinates from ORCA-job neb_MEP_ALL E -600.130234692081
  C       0.001105     -0.000386      0.000148
  Cl      2.209838      0.003458     -0.026315
  H      -0.055742     -0.814818      0.681550
  H      -0.073358     -0.185637     -1.054922
  H      -0.061274      1.003141      0.359671
  F      -2.020569     -0.005757      0.039868
6
Coordinates from ORCA-job neb_MEP_ALL E -600.131309213622
  C      -0.029594     -0.000546      0.001000
  Cl      2.221753      0.003480     -0.026413
  H      -0.053853     -0.815573      0.682100
  H      -0.071720     -0.185838     -1.056213
  H      -0.059458      1.004192      0.359955
  F      -2.007127     -0.005714      0.039571
6
Coordinates from ORCA-job neb_MEP_ALL E -600.133029699254
  C      -0.060163     -0.000625      0.001556
  Cl      2.233393      0.003500     -0.026501
  H      -0.051928     -0.815968      0.682352
  H      -0.070020     -0.185907     -1.056731
  H      -0.057597      1.004674      0.360040
  F      -1.993685     -0.005674      0.039284
6
Coordinates from ORCA-job neb_MEP_ALL E -600.135515746329
  C      -0.093048     -0.000665      0.001962
  Cl      2.245711      0.003518     -0.026577
  H      -0.049841     -0.815648      0.681996
  H      -0.068188     -0.185778     -1.056133
  H      -0.055586      1.004203      0.359775
  F      -1.979047     -0.005630      0.038978
6
Coordinates from ORCA-job neb_MEP_ALL E -600.140551545289
  C      -0.143261     -0.000602      0.002012
  Cl      2.263484      0.003533     -0.026622
  H      -0.046639     -0.813906      0.680401
  H      -0.065403     -0.185206     -1.053079
  H      -0.052518      1.001749      0.358746
  F      -1.955662     -0.005568      0.038542
6
Coordinates from ORCA-job neb_MEP_ALL E -600.145157601168
  C      -0.180210     -0.000542      0.001811
  Cl      2.276132      0.003553     -0.026707
  H      -0.044502     -0.813453      0.679975
  H      -0.063637     -0.184930     -1.051577
  H      -0.050501      1.000878      0.358384
  F      -1.937283     -0.005505      0.038113
6
Coordinates from ORCA-job neb_MEP_ALL E -600.150255033231
  C      -0.215102     -0.000428      0.001366
  Cl      2.289391      0.003581     -0.026909
  H      -0.043628     -0.809861      0.677060
  H      -0.063444     -0.183917     -1.045601
  H      -0.049865      0.996016      0.356752
  F      -1.917353     -0.005392      0.037333
6
Coordinates from ORCA-job neb_MEP_ALL E -600.155541976370
  C      -0.250070     -0.000374      0.001137
  Cl      2.301095      0.003582     -0.026879
  H      -0.042660     -0.806307      0.674020
  H      -0.062993     -0.182932     -1.040143
  H      -0.049068      0.991352      0.355000
  F      -1.896305     -0.005321      0.036864
6
Coordinates from ORCA-job neb_MEP_ALL E -600.160649362298
  C      -0.284678     -0.000303      0.001046
  Cl      2.313130      0.003575     -0.026787
  H      -0.042017     -0.803013      0.671174
  H      -0.062761     -0.182069     -1.035329
  H      -0.048559      0.987082      0.353379
  F      -1.875115     -0.005273      0.036517
6
Coordinates from ORCA-job neb_MEP_ALL E -600.165276852935
  C      -0.319730     -0.000305      0.001413
  Cl      2.328295      0.003591     -0.026911
  H      -0.041818     -0.800079      0.668731
  H      -0.062865     -0.181374     -1.031276
  H      -0.048461      0.983367      0.352076
  F      -1.855422     -0.005201      0.035967
6
Coordinates from ORCA-job neb_MEP_ALL E -600.169212731210
  C      -0.356011     -0.000408      0.002380
  Cl      2.353569      0.003676     -0.027676
  H      -0.042937     -0.796757      0.666321
  H      -0.064248     -0.180732     -1.026825
  H      -0.049717      0.979251      0.351048
  F      -1.840657     -0.005031      0.034752
6
Coordinates from ORCA-job neb_MEP_ALL E -600.172301140184
  C      -0.389549     -0.000582      0.003637
  Cl      2.397796      0.003888     -0.029534
  H      -0.047420     -0.791700      0.663117
  H      -0.069062     -0.179831     -1.019677
  H      -0.054388      0.972945      0.349997
  F      -1.837377     -0.004720      0.032460
6
Coordinates from ORCA-job neb_MEP_ALL E -600.174608563177
  C      -0.418019     -0.000809      0.005152
  Cl      2.462156      0.004240     -0.032573
  H      -0.056273     -0.786234      0.660248
  H      -0.078203     -0.178954     -1.011382
  H      -0.063450      0.966019      0.349510
  F      -1.846211     -0.004261      0.029045
6
Coordinates from ORCA-job neb_MEP_ALL E -600.174832623432
  C      -0.446010     -0.000843      0.006544
  Cl      2.563533      0.004709     -0.036323
  H      -0.064447     -0.778874      0.655843
  H      -0.087199     -0.177649     -0.999966
  H      -0.071984      0.956479      0.348252
  F      -1.893893     -0.003822      0.025650
6
Coordinates from ORCA-job neb_MEP_ALL E -600.173324335993
  C      -0.447889     -0.000816      0.006738
  Cl      2.503667      0.004736     -0.036972
  H      -0.072770     -0.788953      0.665477
  H      -0.094037     -0.179979     -1.012183
  H      -0.080011      0.968501      0.353732
  F      -1.808960     -0.003489      0.023208
6
Coordinates from ORCA-job neb_MEP_ALL E -600.134564299856
  C       0.308438      0.001548     -0.010576
  Cl      2.140610      0.002551     -0.019709
  H      -0.030064     -0.791634      0.657690
  H      -0.035298     -0.179551     -1.029714
  H      -0.031425      0.975489      0.344389
  F      -2.352262     -0.008402      0.057921
6
Coordinates from ORCA-job neb_MEP_ALL E -600.135227229335
  C       0.289690      0.001409     -0.009372
  Cl      2.125947      0.002800     -0.021521
  H      -0.046984     -0.786492      0.655332
  H      -0.054793     -0.178893     -1.021599
  H      -0.049134      0.968853      0.344397
  F      -2.264725     -0.007678      0.052764
6
Coordinates from ORCA-job neb_MEP_ALL E -600.135276266405
  C       0.280081      0.001375     -0.009091
  Cl      2.125183      0.002859     -0.021986
  H      -0.047463     -0.785142      0.654473
  H      -0.056153     -0.178527     -1.019039
  H      -0.049931      0.966940      0.344019
  F      -2.251717     -0.007504      0.051624
6
Coordinates from ORCA-job neb_MEP_ALL E -600.135116049307
  C       0.257657      0.001216     -0.007968
  Cl      2.119037      0.003048     -0.023387
  H      -0.055141     -0.788681      0.658514
  H      -0.066332     -0.179389     -1.021720
  H      -0.058467      0.970754      0.346677
  F      -2.196754     -0.006948      0.047883
6
Coordinates from ORCA-job neb_MEP_ALL E -600.134607492596
  C       0.229285      0.001087     -0.007036
  Cl      2.120611      0.003186     -0.024412
  H      -0.060321     -0.793625      0.663423
  H      -0.073541     -0.180529     -1.026608
  H      -0.064327      0.976406      0.349626
  F      -2.151707     -0.006525      0.045006
6
Coordinates from ORCA-job neb_MEP_ALL E -600.133761862802
  C       0.197907      0.000980     -0.006281
  Cl      2.128231      0.003274     -0.025043
  H      -0.062899     -0.798940      0.668307
  H      -0.077559     -0.181720     -1.032474
  H      -0.067385      0.982647      0.352388
  F      -2.118294     -0.006241      0.043105
6
Coordinates from ORCA-job neb_MEP_ALL E -600.132686489886
  C       0.164871      0.000899     -0.005701
  Cl      2.139844      0.003325     -0.025415
  H      -0.063644     -0.803970      0.672731
  H      -0.079300     -0.182824     -1.038293
  H      -0.068473      0.988623      0.354790
  F      -2.093299     -0.006053      0.041888
6
Coordinates from ORCA-job neb_MEP_ALL E -600.131597302986
  C       0.131910      0.000863     -0.005309
  Cl      2.152962      0.003351     -0.025650
  H      -0.063251     -0.808266      0.676422
  H      -0.079581     -0.183740     -1.043280
  H      -0.068316      0.993719      0.356738
  F      -2.073724     -0.005927      0.041078
6
Coordinates from ORCA-job neb_MEP_ALL E -600.130680056372
  C       0.099438      0.000883     -0.005068
  Cl      2.166051      0.003367     -0.025815
  H      -0.062232     -0.811798      0.679425
  H      -0.079052     -0.184467     -1.047286
  H      -0.067462      0.997850      0.358282
  F      -2.056744     -0.005834      0.040463
6
Coordinates from ORCA-job neb_MEP_ALL E -600.130118423540
  C       0.067293      0.000938     -0.005009
  Cl      2.178740      0.003380     -0.025945
  H      -0.060860     -0.814713      0.681896
  H      -0.078070     -0.185031     -1.050393
  H      -0.066219      1.001179      0.359520
  F      -2.040885     -0.005753      0.039931
6
Coordinates from ORCA-job neb_MEP_ALL E -600.130054343272
  C       0.035007      0.001053     -0.005123
  Cl      2.191370      0.003389     -0.026051
  H      -0.059253     -0.817124      0.683941
  H      -0.076817     -0.185458     -1.052711
  H      -0.064727      1.003815      0.360507
  F      -2.025581     -0.005676      0.039437
6
Coordinates from ORCA-job neb_MEP_ALL E -600.130541838096
  C       0.003858      0.001185     -0.005279
  Cl      2.203493      0.003392     -0.026123
  H      -0.057516     -0.818855      0.685400
  H      -0.075425     -0.185730     -1.054172
  H      -0.063105      1.005617      0.361179
  F      -2.011305     -0.005608      0.038995
6
Coordinates from ORCA-job neb_MEP_ALL E -600.131583577319
  C      -0.026016      0.001216     -0.005208
  Cl      2.215064      0.003395     -0.026187
  H      -0.055766     -0.819993      0.686355
  H      -0.074048     -0.185909     -1.055146
  H      -0.061482      1.006831      0.361624
  F      -1.997753     -0.005539      0.038563
6
Coordinates from ORCA-job neb_MEP_ALL E -600.133213501619
  C      -0.055509      0.001130     -0.004714
  Cl      2.226420      0.003399     -0.026253
  H      -0.053988     -0.820574      0.686822
  H      -0.072665     -0.186028     -1.055843
  H      -0.059840      1.007542      0.361860
  F      -1.984419     -0.005468      0.038127
6
Coordinates from ORCA-job neb_MEP_ALL E -600.135637798622
  C      -0.088715      0.000996     -0.003995
  Cl      2.239125      0.003403     -0.026316
  H      -0.051948     -0.820789      0.686959
  H      -0.071063     -0.186082     -1.056222
  H      -0.057949      1.007861      0.361927
  F      -1.969449     -0.005389      0.037646
6
Coordinates from ORCA-job neb_MEP_ALL E -600.140648930508
  C      -0.140632      0.000630     -0.002233
  Cl      2.258541      0.003400     -0.026335
  H      -0.048626     -0.819264      0.685524
  H      -0.068379     -0.185834     -1.055133
  H      -0.054836      1.006347      0.361195
  F      -1.946068     -0.005279      0.036982
6
Coordinates from ORCA-job neb_MEP_ALL E -600.145249474949
  C      -0.177728      0.000359     -0.000603
  Cl      2.272232      0.003396     -0.026319
  H      -0.046321     -0.816029      0.682649
  H      -0.066390     -0.185226     -1.051989
  H      -0.052629      1.002712      0.359698
  F      -1.929163     -0.005212      0.036564
6
Coordinates from ORCA-job neb_MEP_ALL E -600.150299222417
  C      -0.216762     -0.000001      0.001265
  Cl      2.285797      0.003411     -0.026404
  H      -0.043635     -0.816323      0.682748
  H      -0.063958     -0.185430     -1.053462
  H      -0.050008      1.003471      0.359792
  F      -1.911434     -0.005128      0.036062
6
Coordinates from ORCA-job neb_MEP_ALL E -600.155649351146
  C      -0.251535     -0.000096      0.001992
  Cl      2.301012      0.003450     -0.026732
  H      -0.043011     -0.811297      0.678661
  H      -0.064175     -0.184265     -1.046577
  H      -0.049677      0.997173      0.357678
  F      -1.892613     -0.004965      0.034978
6
Coordinates from ORCA-job neb_MEP_ALL E -600.160915587772
  C      -0.285619     -0.000270      0.002488
  Cl      2.313691      0.003444     -0.026650
  H      -0.042278     -0.805426      0.673600
  H      -0.064107     -0.182827     -1.038787
  H      -0.049145      0.989952      0.354896
  F      -1.872543     -0.004873      0.034454
6
Coordinates from ORCA-job neb_MEP_ALL E -600.165725357990
  C      -0.319152     -0.000250      0.002304
  Cl      2.326632      0.003412     -0.026341
  H      -0.042175     -0.799241      0.668191
  H      -0.064604     -0.181271     -1.030325
  H      -0.049213      0.982198      0.351854
  F      -1.851488     -0.004847      0.034318
6
Coordinates from ORCA-job neb_MEP_ALL E -600.169734220800
  C      -0.355575     -0.000232      0.002348
  Cl      2.348236      0.003427     -0.026498
  H      -0.043240     -0.793629      0.663512
  H      -0.066089     -0.179924     -1.022532
  H      -0.050416      0.975139      0.349361
  F      -1.832915     -0.004781      0.033809
6
Coordinates from ORCA-job neb_MEP_ALL E -600.172643563003
  C      -0.390689     -0.000336      0.003359
  Cl      2.393988      0.003612     -0.028206
  H      -0.047997     -0.788578      0.660207
  H      -0.070955     -0.178994     -1.015395
  H      -0.055303      0.968817      0.348185
  F      -1.829044     -0.004521      0.031850
6
Coordinates from ORCA-job neb_MEP_ALL E -600.174703120359
  C      -0.417475     -0.000496      0.004673
  Cl      2.462521      0.003972     -0.031452
  H      -0.057780     -0.784949      0.658988
  H      -0.080420     -0.178562     -1.009424
  H      -0.065134      0.964129      0.348632
  F      -1.841713     -0.004095      0.028583
6
Coordinates from ORCA-job neb_MEP_ALL E -600.175741659828
  C      -0.458227     -0.000727      0.006240
  Cl      2.579055      0.004415     -0.034954
  H      -0.065281     -0.779910      0.656184
  H      -0.088147     -0.177836     -1.001758
  H      -0.072727      0.957826      0.348172
  F      -1.894672     -0.003767      0.026117
6
Coordinates from ORCA-job neb_MEP_ALL E -600.173324335993
  C      -0.447891     -0.000774      0.006608
  Cl      2.503679      0.004501     -0.036243
  H      -0.073038     -0.788946      0.665456
  H      -0.093759     -0.179970     -1.012210
  H      -0.080023      0.968509      0.353708
  F      -1.808967     -0.003319      0.022681
6
Coordinates from ORCA-job neb_MEP_ALL E -600.134564299856
  C       0.308438      0.001548     -0.010576
  Cl      2.140610      0.002551     -0.019709
  H      -0.030064     -0.791634      0.657690
  H      -0.035298     -0.179551     -1.029714
  H      -0.031425      0.975489      0.344389
  F      -2.352262     -0.008402      0.057921
6
Coordinates from ORCA-job neb_MEP_ALL E -600.135149394050
  C       0.285422      0.001438     -0.009546
  Cl      2.130666      0.002804     -0.021558
  H      -0.047281     -0.786882      0.655682
  H      -0.055200     -0.178927     -1.021793
  H      -0.049464      0.969232      0.344552
  F      -2.264144     -0.007665      0.052663
6
Coordinates from ORCA-job neb_MEP_ALL E -600.135257210578
  C       0.279428      0.001451     -0.009520
  Cl      2.128743      0.002860     -0.021995
  H      -0.048161     -0.785028      0.654440
  H      -0.056921     -0.178450     -1.018473
  H      -0.050649      0.966660      0.343993
  F      -2.252439     -0.007493      0.051555
6
Coordinates from ORCA-job neb_MEP_ALL E -600.135132066264
  C       0.259463      0.001285     -0.008324
  Cl      2.119848      0.003068     -0.023495
  H      -0.056237     -0.787234      0.657457
  H      -0.067809     -0.179031     -1.019329
  H      -0.059690      0.968798      0.346166
  F      -2.195576     -0.006887      0.047526
6
Coordinates from ORCA-job neb_MEP_ALL E -600.134627649767
  C       0.231130      0.001150     -0.007305
  Cl      2.118789      0.003225     -0.024625
  H      -0.062102     -0.792466      0.662708
  H      -0.076065     -0.180239     -1.024378
  H      -0.066345      0.974736      0.349342
  F      -2.145408     -0.006406      0.044258
6
Coordinates from ORCA-job neb_MEP_ALL E -600.133772554012
  C       0.198907      0.001055     -0.006571
  Cl      2.125258      0.003314     -0.025241
  H      -0.064701     -0.798428      0.668140
  H      -0.080240     -0.181564     -1.030969
  H      -0.069464      0.981728      0.352384
  F      -2.109760     -0.006105      0.042257
6
Coordinates from ORCA-job neb_MEP_ALL E -600.132694845141
  C       0.165053      0.001012     -0.006127
  Cl      2.136381      0.003357     -0.025557
  H      -0.065173     -0.803958      0.672957
  H      -0.081689     -0.182755     -1.037318
  H      -0.070270      0.988263      0.354961
  F      -2.084301     -0.005920      0.041083
6
Coordinates from ORCA-job neb_MEP_ALL E -600.131615239950
  C       0.131897      0.001029     -0.005900
  Cl      2.148814      0.003375     -0.025746
  H      -0.064537     -0.808457      0.676805
  H      -0.081662     -0.183693     -1.042446
  H      -0.069844      0.993549      0.356963
  F      -2.064668     -0.005804      0.040324
6
Coordinates from ORCA-job neb_MEP_ALL E -600.130737612861
  C       0.099781      0.001081     -0.005803
  Cl      2.161015      0.003388     -0.025889
  H      -0.063424     -0.812038      0.679854
  H      -0.080993     -0.184415     -1.046404
  H      -0.068879      0.997696      0.358520
  F      -2.047500     -0.005712      0.039722
6
Coordinates from ORCA-job neb_MEP_ALL E -600.130215973502
  C       0.068484      0.001144     -0.005804
  Cl      2.172777      0.003399     -0.026015
  H      -0.062087     -0.814910      0.682306
  H      -0.080037     -0.184968     -1.049414
  H      -0.067671      1.000961      0.359756
  F      -2.031466     -0.005627      0.039172
6
Coordinates from ORCA-job neb_MEP_ALL E -600.130173087285
  C       0.036891      0.001236     -0.005882
  Cl      2.184784      0.003409     -0.026139
  H      -0.060587     -0.817239      0.684311
  H      -0.078918     -0.185389     -1.051662
  H      -0.066301      1.003525      0.360748
  F      -2.015869     -0.005541      0.038626
6
Coordinates from ORCA-job neb_MEP_ALL E -600.130669717244
  C       0.006702      0.001325     -0.005942
  Cl      2.196424      0.003415     -0.026252
  H      -0.059030     -0.818952      0.685795
  H      -0.077753     -0.185682     -1.053178
  H      -0.064879      1.005356      0.361473
  F      -2.001464     -0.005462      0.038104
6
Coordinates from ORCA-job neb_MEP_ALL E -600.131677662281
  C      -0.022132      0.001370     -0.005901
  Cl      2.207569      0.003421     -0.026358
  H      -0.057471     -0.820179      0.686869
  H      -0.076606     -0.185886     -1.054210
  H      -0.063462      1.006657      0.362004
  F      -1.987897     -0.005383      0.037596
6
Coordinates from ORCA-job neb_MEP_ALL E -600.133227086433
  C      -0.050439      0.001374     -0.005762
  Cl      2.218498      0.003428     -0.026458
  H      -0.055909     -0.821039      0.687634
  H      -0.075472     -0.186027     -1.054892
  H      -0.062050      1.007566      0.362389
  F      -1.974629     -0.005302      0.037089
6
Coordinates from ORCA-job neb_MEP_ALL E -600.135637342641
  C      -0.083833      0.001299     -0.005296
  Cl      2.231336      0.003436     -0.026572
  H      -0.054025     -0.821788      0.688293
  H      -0.074091     -0.186176     -1.055664
  H      -0.060341      1.008437      0.362740
  F      -1.959046     -0.005207      0.036499
6
Coordinates from ORCA-job neb_MEP_ALL E -600.140781787521
  C      -0.137451      0.001118     -0.004241
  Cl      2.252091      0.003438     -0.026670
  H      -0.050889     -0.821900      0.688358
  H      -0.071781     -0.186203     -1.055861
  H      -0.057485      1.008616      0.362774
  F      -1.934484     -0.005070      0.035639
6
Coordinates from ORCA-job neb_MEP_ALL E -600.145361376063
  C      -0.175338      0.000922     -0.003317
  Cl      2.266810      0.003422     -0.026613
  H      -0.048479     -0.819815      0.686508
  H      -0.069942     -0.185762     -1.053548
  H      -0.055264      1.006225      0.361795
  F      -1.917787     -0.004992      0.035174
6
Coordinates from ORCA-job neb_MEP_ALL E -600.150585384370
  C      -0.216581      0.000704     -0.001728
  Cl      2.281760      0.003402     -0.026469
  H      -0.045286     -0.817787      0.684557
  H      -0.066972     -0.185413     -1.052026
  H      -0.052131      1.004045      0.360720
  F      -1.900790     -0.004951      0.034946
6
Coordinates from ORCA-job neb_MEP_ALL E -600.155945371681
  C      -0.254372      0.000202      0.000944
  Cl      2.297466      0.003438     -0.026750
  H      -0.042679     -0.818476      0.685104
  H      -0.064788     -0.185854     -1.054584
  H      -0.049646      1.005501      0.361208
  F      -1.885981     -0.004811      0.034078
6
Coordinates from ORCA-job neb_MEP_ALL E -600.161142895266
  C      -0.289277      0.000041      0.002296
  Cl      2.314880      0.003482     -0.027118
  H      -0.041930     -0.812228      0.679980
  H      -0.065194     -0.184460     -1.046464
  H      -0.049299      0.997771      0.358557
  F      -1.869180     -0.004607      0.032749
6
Coordinates from ORCA-job neb_MEP_ALL E -600.165808608828
  C      -0.323059     -0.000241      0.003232
  Cl      2.328453      0.003437     -0.026683
  H      -0.041254     -0.803495      0.672280
  H      -0.065479     -0.182396     -1.035590
  H      -0.048896      0.987230      0.354298
  F      -1.849765     -0.004535      0.032465
6
Coordinates from ORCA-job neb_MEP_ALL E -600.169790150170
  C      -0.357730     -0.000238      0.003024
  Cl      2.345922      0.003367     -0.026040
  H      -0.042051     -0.793807      0.663690
  H      -0.067025     -0.180013     -1.022877
  H      -0.049875      0.975262      0.349458
  F      -1.829241     -0.004571      0.032745
6
Coordinates from ORCA-job neb_MEP_ALL E -600.172680549720
  C      -0.392796     -0.000255      0.003395
  Cl      2.391200      0.003493     -0.027280
  H      -0.047250     -0.786837      0.658467
  H      -0.072227     -0.178524     -1.013142
  H      -0.055145      0.966537      0.347060
  F      -1.823782     -0.004415      0.031499
6
Coordinates from ORCA-job neb_MEP_ALL E -600.174742329782
  C      -0.417231     -0.000355      0.004475
  Cl      2.463607      0.003859     -0.030706
  H      -0.058566     -0.784010      0.657995
  H      -0.082488     -0.178286     -1.008168
  H      -0.066307      0.962828      0.347940
  F      -1.839015     -0.004035      0.028465
6
Coordinates from ORCA-job neb_MEP_ALL E -600.175935511402
  C      -0.464839     -0.000606      0.005876
  Cl      2.596294      0.004271     -0.033866
  H      -0.068881     -0.779020      0.654850
  H      -0.092409     -0.177574     -1.001100
  H      -0.076468      0.956776      0.347163
  F      -1.893698     -0.003846      0.027076
6
Coordinates from ORCA-job neb_MEP_ALL E -600.173324335993
  C      -0.447892     -0.000761      0.006557
  Cl      2.503683      0.004428     -0.035962
  H      -0.073136     -0.788944      0.665448
  H      -0.093651     -0.179967     -1.012221
  H      -0.080035      0.968511      0.353699
  F      -1.808970     -0.003267      0.022477
6
Coordinates from ORCA-job neb_MEP_ALL E -600.134564299856
  C       0.308438      0.001548     -0.010576
  Cl      2.140610      0.002551     -0.019709
  H      -0.030064     -0.791634      0.657690
  H      -0.035298     -0.179551     -1.029714
  H      -0.031425      0.975489      0.344389
  F      -2.352262     -0.008402      0.057921
6
Coordinates from ORCA-job neb_MEP_ALL E -600.135187796899
  C       0.276517      0.001428     -0.009487
  Cl      2.137642      0.002805     -0.021583
  H      -0.045984     -0.784904      0.653976
  H      -0.054094     -0.178426     -1.019138
  H      -0.048231      0.966761      0.343588
  F      -2.265851     -0.007664      0.052644
6
Coordinates from ORCA-job neb_MEP_ALL E -600.135274734269
  C       0.277000      0.001447     -0.009503
  Cl      2.133387      0.002873     -0.022073
  H      -0.048677     -0.783684      0.653398
  H      -0.057791     -0.178165     -1.016683
  H      -0.051282      0.964992      0.343494
  F      -2.252638     -0.007463      0.051366
6
Coordinates from ORCA-job neb_MEP_ALL E -600.135153533611
  C       0.261414      0.001272     -0.008254
  Cl      2.121018      0.003115     -0.023739
  H      -0.057479     -0.784127      0.655091
  H      -0.069908     -0.178377     -1.015059
  H      -0.061223      0.964896      0.345059
  F      -2.193821     -0.006779      0.046901
6
Coordinates from ORCA-job neb_MEP_ALL E -600.134633458019
  C       0.232937      0.001113     -0.007077
  Cl      2.115754      0.003308     -0.025067
  H      -0.064517     -0.789771      0.660867
  H      -0.079980     -0.179686     -1.020277
  H      -0.069247      0.971235      0.348600
  F      -2.134947     -0.006199      0.042954
6
Coordinates from ORCA-job neb_MEP_ALL E -600.133767710348
  C       0.199138      0.001017     -0.006332
  Cl      2.120378      0.003400     -0.025659
  H      -0.067078     -0.796594      0.667022
  H      -0.084332     -0.181191     -1.027861
  H      -0.072395      0.979240      0.352014
  F      -2.095711     -0.005872      0.040816
6
Coordinates from ORCA-job neb_MEP_ALL E -600.132686568951
  C       0.164126      0.000983     -0.005911
  Cl      2.130513      0.003434     -0.025897
  H      -0.067083     -0.802572      0.672166
  H      -0.085293     -0.182476     -1.034825
  H      -0.072726      0.986331      0.354736
  F      -2.069537     -0.005699      0.039731
6
Coordinates from ORCA-job neb_MEP_ALL E -600.131630525893
  C       0.130986      0.000982     -0.005622
  Cl      2.141672      0.003446     -0.026043
  H      -0.066132     -0.807044      0.675962
  H      -0.084890     -0.183422     -1.040058
  H      -0.071962      0.991634      0.356710
  F      -2.049672     -0.005596      0.039052
6
Coordinates from ORCA-job neb_MEP_ALL E -600.130791648131
  C       0.099804      0.000978     -0.005353
  Cl      2.152448      0.003461     -0.026185
  H      -0.064961     -0.810390      0.678812
  H      -0.084137     -0.184129     -1.043940
  H      -0.070932      0.995589      0.358194
  F      -2.032222     -0.005509      0.038473
6
Coordinates from ORCA-job neb_MEP_ALL E -600.130307794033
  C       0.070033      0.000963     -0.005074
  Cl      2.162893      0.003478     -0.026341
  H      -0.063737     -0.812956      0.681021
  H      -0.083306     -0.184668     -1.046864
  H      -0.069845      0.998603      0.359351
  F      -2.016039     -0.005420      0.037908
6
Coordinates from ORCA-job neb_MEP_ALL E -600.130274252029
  C       0.039664      0.000945     -0.004764
  Cl      2.174008      0.003497     -0.026524
  H      -0.062411     -0.814984      0.682794
  H      -0.082398     -0.185092     -1.049107
  H      -0.068668      1.000961      0.360290
  F      -2.000196     -0.005328      0.037311
6
Coordinates from ORCA-job neb_MEP_ALL E -600.130741755554
  C       0.011214      0.000920     -0.004432
  Cl      2.184825      0.003517     -0.026723
  H      -0.061112     -0.816534      0.684180
  H      -0.081530     -0.185420     -1.050782
  H      -0.067519      1.002757      0.361042
  F      -1.985878     -0.005240      0.036716
6
Coordinates from ORCA-job neb_MEP_ALL E -600.131691606688
  C      -0.015856      0.000894     -0.004105
  Cl      2.195192      0.003536     -0.026916
  H      -0.059813     -0.817724      0.685265
  H      -0.080652     -0.185674     -1.052028
  H      -0.066366      1.004123      0.361641
  F      -1.972505     -0.005155      0.036142
6
Coordinates from ORCA-job neb_MEP_ALL E -600.133142305455
  C      -0.042429      0.000869     -0.003763
  Cl      2.205365      0.003557     -0.027109
  H      -0.058527     -0.818671      0.686154
  H      -0.079787     -0.185882     -1.052995
  H      -0.065227      1.005194      0.362144
  F      -1.959395     -0.005068      0.035568
6
Coordinates from ORCA-job neb_MEP_ALL E -600.135527939612
  C      -0.075818      0.000859     -0.003474
  Cl      2.218070      0.003584     -0.027347
  H      -0.056897     -0.819804      0.687226
  H      -0.078644     -0.186107     -1.054010
  H      -0.063766      1.006429      0.362737
  F      -1.942945     -0.004961      0.034869
6
Coordinates from ORCA-job neb_MEP_ALL E -600.140800041502
  C      -0.132513      0.000764     -0.002713
  Cl      2.240459      0.003626     -0.027723
  H      -0.054235     -0.821481      0.688795
  H      -0.076857     -0.186460     -1.055687
  H      -0.061401      1.008336      0.363617
  F      -1.915452     -0.004785      0.033711
6
Coordinates from ORCA-job neb_MEP_ALL E -600.145482827827
  C      -0.170793      0.000750     -0.002265
  Cl      2.256152      0.003631     -0.027838
  H      -0.052262     -0.821770      0.689081
  H      -0.075596     -0.186500     -1.055798
  H      -0.059674      1.008575      0.363761
  F      -1.897828     -0.004686      0.033058
6
Coordinates from ORCA-job neb_MEP_ALL E -600.151030753939
  C      -0.215148      0.000650     -0.002288
  Cl      2.273625      0.003594     -0.027579
  H      -0.048924     -0.819623      0.687084
  H      -0.072824     -0.185899     -1.052758
  H      -0.056505      1.005938      0.362582
  F      -1.880223     -0.004660      0.032958
6
Coordinates from ORCA-job neb_MEP_ALL E -600.156115136958
  C      -0.257506      0.000791     -0.002193
  Cl      2.291385      0.003578     -0.027443
  H      -0.044966     -0.819228      0.686572
  H      -0.069146     -0.185735     -1.052043
  H      -0.052636      1.005254      0.362149
  F      -1.867131     -0.004660      0.032957
6
Coordinates from ORCA-job neb_MEP_ALL E -600.161421784030
  C      -0.294320      0.000078      0.001304
  Cl      2.311931      0.003665     -0.028117
  H      -0.041814     -0.822209      0.689276
  H      -0.066767     -0.186845     -1.057948
  H      -0.049717      1.009736      0.364002
  F      -1.859312     -0.004424      0.031484
6
Coordinates from ORCA-job neb_MEP_ALL E -600.166151664787
  C      -0.331166     -0.000052      0.003031
  Cl      2.333985      0.003691     -0.028285
  H      -0.040255     -0.813217      0.681712
  H      -0.067385     -0.184779     -1.046302
  H      -0.048912      0.998526      0.359931
  F      -1.846267     -0.004169      0.029913
6
Coordinates from ORCA-job neb_MEP_ALL E -600.169900029369
  C      -0.365917     -0.000363      0.003991
  Cl      2.348777      0.003503     -0.026521
  H      -0.039341     -0.797858      0.667602
  H      -0.068204     -0.181088     -1.027791
  H      -0.048416      0.980070      0.351828
  F      -1.826899     -0.004265      0.030891
6
Coordinates from ORCA-job neb_MEP_ALL E -600.172647927209
  C      -0.396735     -0.000347      0.003867
  Cl      2.389386      0.003487     -0.026488
  H      -0.044707     -0.786002      0.657435
  H      -0.073627     -0.178318     -1.012395
  H      -0.053786      0.965512      0.346342
  F      -1.820531     -0.004332      0.031240
6
Coordinates from ORCA-job neb_MEP_ALL E -600.174749290897
  C      -0.417604     -0.000384      0.004550
  Cl      2.466144      0.003844     -0.030041
  H      -0.058720     -0.783182      0.656951
  H      -0.085359     -0.178062     -1.007428
  H      -0.067291      0.961837      0.347200
  F      -1.837169     -0.004053      0.028767
6
Coordinates from ORCA-job neb_MEP_ALL E -600.176169848167
  C      -0.469489     -0.000500      0.005370
  Cl      2.625182      0.004206     -0.032582
  H      -0.077282     -0.776539      0.651807
  H      -0.102638     -0.176919     -0.998812
  H      -0.085371      0.953851      0.345063
  F      -1.890402     -0.004098      0.029154
6
Coordinates from ORCA-job neb_MEP_ALL E -600.173324335993
  C      -0.447891     -0.000772      0.006586
  Cl      2.503681      0.004485     -0.036123
  H      -0.073075     -0.788946      0.665453
  H      -0.093712     -0.179969     -1.012215
  H      -0.080034      0.968509      0.353705
  F      -1.808969     -0.003308      0.022594
6
Coordinates from ORCA-job neb_MEP_ALL E -600.134564299856
  C       0.308438      0.001548     -0.010576
  Cl      2.140610      0.002551     -0.019709
  H      -0.030064     -0.791634      0.657690
  H      -0.035298     -0.179551     -1.029714
  H      -0.031425      0.975489      0.344389
  F      -2.352262     -0.008402      0.057921
6
Coordinates from ORCA-job neb_MEP_ALL E -600.135235768790
  C       0.271615      0.001376     -0.009181
  Cl      2.140308      0.002803     -0.021581
  H      -0.044343     -0.782685      0.652042
  H      -0.052642     -0.177922     -1.016500
  H      -0.046654      0.964100      0.342529
  F      -2.268283     -0.007672      0.052692
6
Coordinates from ORCA-job neb_MEP_ALL E -600.135270539101
  C       0.275432      0.001345     -0.008943
  Cl      2.134817      0.002890     -0.022182
  H      -0.048665     -0.782367      0.652351
  H      -0.058235     -0.177960     -1.015408
  H      -0.051424      0.963521      0.343031
  F      -2.251925     -0.007429      0.051151
6
Coordinates from ORCA-job neb_MEP_ALL E -600.135164081385
  C       0.262700      0.001163     -0.007713
  Cl      2.121468      0.003161     -0.023984
  H      -0.058041     -0.782121      0.653583
  H      -0.071302     -0.178033     -1.012693
  H      -0.062070      0.962518      0.344422
  F      -2.192755     -0.006689      0.046385
6
Coordinates from ORCA-job neb_MEP_ALL E -600.134616335756
  C       0.233313      0.000973     -0.006398
  Cl      2.113625      0.003388     -0.025489
  H      -0.065898     -0.787849      0.659576
  H      -0.082721     -0.179370     -1.017736
  H      -0.071076      0.968887      0.348154
  F      -2.127243     -0.006028      0.041893
6
Coordinates from ORCA-job neb_MEP_ALL E -600.133709577464
  C       0.198133      0.000853     -0.005582
  Cl      2.117021      0.003483     -0.026059
  H      -0.068294     -0.794948      0.665952
  H      -0.087047     -0.180940     -1.025692
  H      -0.074105      0.977242      0.351686
  F      -2.085708     -0.005689      0.039696
6
Coordinates from ORCA-job neb_MEP_ALL E -600.132631440581
  C       0.162532      0.000776     -0.005017
  Cl      2.126267      0.003513     -0.026256
  H      -0.067978     -0.800868      0.671008
  H      -0.087665     -0.182235     -1.032793
  H      -0.074109      0.984345      0.354365
  F      -2.059047     -0.005530      0.038694
6
Coordinates from ORCA-job neb_MEP_ALL E -600.131621500547
  C       0.129783      0.000707     -0.004499
  Cl      2.136434      0.003527     -0.026400
  H      -0.066932     -0.805069      0.674561
  H      -0.087150     -0.183163     -1.037966
  H      -0.073246      0.989435      0.356241
  F      -2.038889     -0.005437      0.038062
6
Coordinates from ORCA-job neb_MEP_ALL E -600.130848393076
  C       0.099595      0.000616     -0.003968
  Cl      2.146312      0.003549     -0.026566
  H      -0.065818     -0.808103      0.677151
  H      -0.086455     -0.183847     -1.041745
  H      -0.072276      0.993138      0.357631
  F      -2.021358     -0.005352      0.037498
6
Coordinates from ORCA-job neb_MEP_ALL E -600.130416766529
  C       0.070955      0.000506     -0.003373
  Cl      2.156072      0.003576     -0.026759
  H      -0.064689     -0.810384      0.679121
  H      -0.085731     -0.184378     -1.044639
  H      -0.071291      0.995946      0.358712
  F      -2.005316     -0.005265      0.036938
6
Coordinates from ORCA-job neb_MEP_ALL E -600.130395632459
  C       0.041637      0.000365     -0.002677
  Cl      2.166633      0.003605     -0.026989
  H      -0.063429     -0.812166      0.680686
  H      -0.084900     -0.184812     -1.046968
  H      -0.070187      0.998182      0.359600
  F      -1.989754     -0.005175      0.036347
6
Coordinates from ORCA-job neb_MEP_ALL E -600.130823884676
  C       0.014497      0.000222     -0.001984
  Cl      2.176812      0.003637     -0.027243
  H      -0.062201     -0.813523      0.681914
  H      -0.084086     -0.185158     -1.048772
  H      -0.069104      0.999913      0.360326
  F      -1.975917     -0.005091      0.035759
6
Coordinates from ORCA-job neb_MEP_ALL E -600.131684063995
  C      -0.011341      0.000131     -0.001426
  Cl      2.186538      0.003667     -0.027487
  H      -0.060964     -0.814601      0.682910
  H      -0.083221     -0.185426     -1.050113
  H      -0.067993      1.001243      0.360914
  F      -1.963019     -0.005013      0.035203
6
Coordinates from ORCA-job neb_MEP_ALL E -600.132990652998
  C      -0.037034      0.000099     -0.001137
  Cl      2.196158      0.003698     -0.027729
  H      -0.059718     -0.815538      0.683806
  H      -0.082327     -0.185628     -1.051018
  H      -0.066866      1.002303      0.361429
  F      -1.950213     -0.004934      0.034649
6
Coordinates from ORCA-job neb_MEP_ALL E -600.135297763117
  C      -0.070056      0.000010     -0.000502
  Cl      2.208406      0.003742     -0.028049
  H      -0.058120     -0.816352      0.684624
  H      -0.081148     -0.185843     -1.051955
  H      -0.065410      1.003273      0.361942
  F      -1.933672     -0.004830      0.033939
6
Coordinates from ORCA-job neb_MEP_ALL E -600.140844414715
  C      -0.130107      0.000045     -0.000100
  Cl      2.231488      0.003822     -0.028640
  H      -0.055538     -0.817868      0.686177
  H      -0.079322     -0.186112     -1.052898
  H      -0.063084      1.004756      0.362814
  F      -1.903437     -0.004643      0.032646
6
Coordinates from ORCA-job neb_MEP_ALL E -600.145551216833
  C      -0.168848     -0.000032      0.000063
  Cl      2.247143      0.003868     -0.028980
  H      -0.054016     -0.819016      0.687318
  H      -0.078424     -0.186306     -1.053683
  H      -0.061769      1.006006      0.363468
  F      -1.884086     -0.004519      0.031813
6
Coordinates from ORCA-job neb_MEP_ALL E -600.151578537912
  C      -0.213723      0.000143      0.000935
  Cl      2.266317      0.003868     -0.029035
  H      -0.051970     -0.817035      0.685604
  H      -0.077057     -0.185887     -1.051255
  H      -0.059971      1.003361      0.362481
  F      -1.863596     -0.004450      0.031270
6
Coordinates from ORCA-job neb_MEP_ALL E -600.157218188068
  C      -0.258999     -0.000411      0.002297
  Cl      2.285126      0.003846     -0.028769
  H      -0.048094     -0.816778      0.685028
  H      -0.073271     -0.185925     -1.052251
  H      -0.056054      1.003731      0.362176
  F      -1.848708     -0.004462      0.031519
6
Coordinates from ORCA-job neb_MEP_ALL E -600.161283383838
  C      -0.304287      0.000373      0.000114
  Cl      2.311935      0.003904     -0.029202
  H      -0.044573     -0.816037      0.684681
  H      -0.070779     -0.185388     -1.048342
  H      -0.052935      1.001554      0.361775
  F      -1.839361     -0.004405      0.030973
6
Coordinates from ORCA-job neb_MEP_ALL E -600.166348492063
  C      -0.333979     -0.000479      0.003240
  Cl      2.334779      0.003996     -0.029866
  H      -0.041691     -0.817527      0.686201
  H      -0.069328     -0.186084     -1.051917
  H      -0.050480      1.004209      0.363021
  F      -1.839302     -0.004116      0.029321
6
Coordinates from ORCA-job neb_MEP_ALL E -600.170282793071
  C      -0.372816     -0.000471      0.004136
  Cl      2.357881      0.003824     -0.028130
  H      -0.038571     -0.802155      0.672142
  H      -0.069946     -0.182272     -1.032483
  H      -0.048506      0.985169      0.354805
  F      -1.828042     -0.004094      0.029530
6
Coordinates from ORCA-job neb_MEP_ALL E -600.172630235790
  C      -0.399817     -0.000550      0.004291
  Cl      2.392673      0.003655     -0.026683
  H      -0.042161     -0.787336      0.658554
  H      -0.074372     -0.178711     -1.014427
  H      -0.052256      0.967278      0.347016
  F      -1.824068     -0.004336      0.031249
6
Coordinates from ORCA-job neb_MEP_ALL E -600.174779028192
  C      -0.418884     -0.000596      0.004891
  Cl      2.469108      0.003972     -0.030000
  H      -0.057622     -0.783464      0.656929
  H      -0.086803     -0.178165     -1.008388
  H      -0.066974      0.962418      0.347130
  F      -1.838825     -0.004164      0.029438
6
Coordinates from ORCA-job neb_MEP_ALL E -600.176578680156
  C      -0.468460     -0.000545      0.005143
  Cl      2.646902      0.004302     -0.032090
  H      -0.085070     -0.775362      0.650165
  H      -0.112537     -0.176603     -0.998072
  H      -0.093795      0.952570      0.343875
  F      -1.887039     -0.004361      0.030979
6
Coordinates from ORCA-job neb_MEP_ALL E -600.173324335993
  C      -0.447890     -0.000805      0.006699
  Cl      2.503672      0.004670     -0.036753
  H      -0.072849     -0.788952      0.665470
  H      -0.093953     -0.179975     -1.012192
  H      -0.080016      0.968503      0.353726
  F      -1.808963     -0.003441      0.023049
6
Coordinates from ORCA-job neb_MEP_ALL E -600.134564299856
  C       0.308438      0.001548     -0.010576
  Cl      2.140610      0.002551     -0.019709
  H      -0.030064     -0.791634      0.657690
  H      -0.035298     -0.179551     -1.029714
  H      -0.031425      0.975489      0.344389
  F      -2.352262     -0.008402      0.057921
6
Coordinates from ORCA-job neb_MEP_ALL E -600.135155466293
  C       0.273159      0.001323     -0.008875
  Cl      2.137445      0.002802     -0.021579
  H      -0.043484     -0.781798      0.651265
  H      -0.051956     -0.177752     -1.015622
  H      -0.045851      0.963097      0.342124
  F      -2.269313     -0.007672      0.052687
6
Coordinates from ORCA-job neb_MEP_ALL E -600.135254709725
  C       0.275952      0.001230     -0.008311
  Cl      2.132558      0.002907     -0.022284
  H      -0.048300     -0.781918      0.652005
  H      -0.058249     -0.177952     -1.015296
  H      -0.051189      0.963131      0.342928
  F      -2.250771     -0.007398      0.050957
6
Coordinates from ORCA-job neb_MEP_ALL E -600.135145434095
  C       0.263535      0.001043     -0.007111
  Cl      2.121031      0.003204     -0.024204
  H      -0.057989     -0.782170      0.653734
  H      -0.071876     -0.178146     -1.013059
  H      -0.062233      0.962694      0.344626
  F      -2.192467     -0.006624      0.046014
6
Coordinates from ORCA-job neb_MEP_ALL E -600.134547982646
  C       0.232302      0.000823     -0.005689
  Cl      2.112780      0.003456     -0.025846
  H      -0.066181     -0.787647      0.659616
  H      -0.083999     -0.179437     -1.017603
  H      -0.071691      0.968714      0.348358
  F      -2.123211     -0.005909      0.041165
6
Coordinates from ORCA-job neb_MEP_ALL E -600.133613756829
  C       0.196226      0.000674     -0.004794
  Cl      2.115779      0.003549     -0.026390
  H      -0.068310     -0.794401      0.665681
  H      -0.088075     -0.180942     -1.025235
  H      -0.074462      0.976696      0.351729
  F      -2.081158     -0.005575      0.039009
6
Coordinates from ORCA-job neb_MEP_ALL E -600.132542327695
  C       0.160771      0.000549     -0.004074
  Cl      2.124405      0.003579     -0.026579
  H      -0.067929     -0.799873      0.670347
  H      -0.088584     -0.182167     -1.031982
  H      -0.074387      0.983341      0.354223
  F      -2.054276     -0.005429      0.038066
6
Coordinates from ORCA-job neb_MEP_ALL E -600.131568092379
  C       0.128740      0.000420     -0.003372
  Cl      2.134101      0.003601     -0.026753
  H      -0.067049     -0.803743      0.673633
  H      -0.088238     -0.183056     -1.036934
  H      -0.073692      0.988115      0.355994
  F      -2.033862     -0.005337      0.037432
6
Coordinates from ORCA-job neb_MEP_ALL E -600.130835129098
  C       0.099391      0.000272     -0.002657
  Cl      2.143813      0.003630     -0.026952
  H      -0.066070     -0.806561      0.676045
  H      -0.087698     -0.183723     -1.040624
  H      -0.072867      0.991635      0.357320
  F      -2.016569     -0.005252      0.036868
6
Coordinates from ORCA-job neb_MEP_ALL E -600.130429920256
  C       0.071258      0.000108     -0.001870
  Cl      2.153632      0.003663     -0.027171
  H      -0.064956     -0.808731      0.677914
  H      -0.086994     -0.184259     -1.043577
  H      -0.071900      0.994390      0.358370
  F      -2.001039     -0.005170      0.036333
6
Coordinates from ORCA-job neb_MEP_ALL E -600.130405173094
  C       0.042734     -0.000086     -0.000983
  Cl      2.164007      0.003697     -0.027411
  H      -0.063611     -0.810467      0.679418
  H      -0.086046     -0.184711     -1.046069
  H      -0.070698      0.996659      0.359239
  F      -1.986387     -0.005092      0.035805
6
Coordinates from ORCA-job neb_MEP_ALL E -600.130792208121
  C       0.016241     -0.000275     -0.000122
  Cl      2.173822      0.003732     -0.027663
  H      -0.062222     -0.811715      0.680521
  H      -0.085001     -0.185056     -1.047946
  H      -0.069425      0.998336      0.359904
  F      -1.973415     -0.005023      0.035306
6
Coordinates from ORCA-job neb_MEP_ALL E -600.131569600725
  C      -0.009107     -0.000405      0.000582
  Cl      2.183154      0.003766     -0.027904
  H      -0.060811     -0.812661      0.681369
  H      -0.083869     -0.185313     -1.049305
  H      -0.068103      0.999574      0.360413
  F      -1.961264     -0.004961      0.034845
6
Coordinates from ORCA-job neb_MEP_ALL E -600.132779603375
  C      -0.034929     -0.000478      0.001089
  Cl      2.192539      0.003801     -0.028144
  H      -0.059324     -0.813390      0.682045
  H      -0.082640     -0.185491     -1.050182
  H      -0.066699      1.000457      0.360809
  F      -1.948947     -0.004899      0.034384
6
Coordinates from ORCA-job neb_MEP_ALL E -600.134984562618
  C      -0.066920     -0.000514      0.001408
  Cl      2.203988      0.003842     -0.028436
  H      -0.057482     -0.813780      0.682476
  H      -0.081101     -0.185557     -1.050326
  H      -0.064958      1.000828      0.361070
  F      -1.933527     -0.004820      0.033807
6
Coordinates from ORCA-job neb_MEP_ALL E -600.140857492041
  C      -0.130547     -0.000633      0.002350
  Cl      2.226860      0.003937     -0.029084
  H      -0.054262     -0.813339      0.682356
  H      -0.078430     -0.185471     -1.049315
  H      -0.061921      1.000151      0.361126
  F      -1.901700     -0.004645      0.032568
6
Coordinates from ORCA-job neb_MEP_ALL E -600.145700755633
  C      -0.170826     -0.000563      0.002498
  Cl      2.241746      0.004009     -0.029584
  H      -0.052654     -0.813673      0.682861
  H      -0.077191     -0.185473     -1.048865
  H      -0.060440      1.000219      0.361418
  F      -1.880635     -0.004520      0.031673
6
Coordinates from ORCA-job neb_MEP_ALL E -600.151990545513
  C      -0.213760     -0.000737      0.002144
  Cl      2.260505      0.004088     -0.030126
  H      -0.052214     -0.811627      0.681494
  H      -0.077527     -0.184868     -1.044855
  H      -0.060249      0.997489      0.360826
  F      -1.856755     -0.004344      0.030517
6
Coordinates from ORCA-job neb_MEP_ALL E -600.158073021528
  C      -0.259520     -0.000404      0.003481
  Cl      2.280389      0.004078     -0.030051
  H      -0.050444     -0.811058      0.680807
  H      -0.076304     -0.184820     -1.044765
  H      -0.058699      0.996537      0.360278
  F      -1.835421     -0.004332      0.030251
6
Coordinates from ORCA-job neb_MEP_ALL E -600.163667904625
  C      -0.310032     -0.001117      0.005520
  Cl      2.309029      0.004090     -0.029979
  H      -0.048479     -0.803558      0.674180
  H      -0.074117     -0.183332     -1.037028
  H      -0.056567      0.988242      0.356883
  F      -1.819834     -0.004325      0.030425
6
Coordinates from ORCA-job neb_MEP_ALL E -600.166241690995
  C      -0.342026     -0.000268      0.002534
  Cl      2.336850      0.004201     -0.030796
  H      -0.045998     -0.807021      0.677669
  H      -0.072566     -0.183761     -1.038008
  H      -0.054467      0.991134      0.358671
  F      -1.821794     -0.004285      0.029930
6
Coordinates from ORCA-job neb_MEP_ALL E -600.170532373990
  C      -0.372571     -0.000798      0.004423
  Cl      2.368730      0.004181     -0.030323
  H      -0.041724     -0.804199      0.675020
  H      -0.072334     -0.183166     -1.035191
  H      -0.051437      0.988026      0.357218
  F      -1.830664     -0.004044      0.028853
6
Coordinates from ORCA-job neb_MEP_ALL E -600.172783517904
  C      -0.400440     -0.000734      0.004504
  Cl      2.400953      0.003895     -0.027684
  H      -0.041072     -0.790259      0.661482
  H      -0.074895     -0.179599     -1.018381
  H      -0.051682      0.971033      0.348957
  F      -1.832864     -0.004336      0.031123
6
Coordinates from ORCA-job neb_MEP_ALL E -600.174853615166
  C      -0.420862     -0.000821      0.005198
  Cl      2.472600      0.004116     -0.030217
  H      -0.055764     -0.784640      0.657792
  H      -0.086745     -0.178526     -1.010551
  H      -0.065656      0.964152      0.347633
  F      -1.843574     -0.004282      0.030146
6
Coordinates from ORCA-job neb_MEP_ALL E -600.176810568715
  C      -0.464246     -0.000663      0.005117
  Cl      2.659547      0.004428     -0.032047
  H      -0.090510     -0.776947      0.651219
  H      -0.120026     -0.176951     -1.000614
  H      -0.099874      0.954649      0.344295
  F      -1.884890     -0.004516      0.032030
6
Coordinates from ORCA-job neb_MEP_ALL E -600.173324335993
  C      -0.447888     -0.000836      0.006815
  Cl      2.503663      0.004845     -0.037401
  H      -0.072622     -0.788957      0.665489
  H      -0.094203     -0.179981     -1.012167
  H      -0.079992      0.968497      0.353747
  F      -1.808957     -0.003568      0.023518
6
Coordinates from ORCA-job neb_MEP_ALL E -600.134564299856
  C       0.308438      0.001548     -0.010576
  Cl      2.140610      0.002551     -0.019709
  H      -0.030064     -0.791634      0.657690
  H      -0.035298     -0.179551     -1.029714
  H      -0.031425      0.975489      0.344389
  F      -2.352262     -0.008402      0.057921
6
Coordinates from ORCA-job neb_MEP_ALL E -600.135178867318
  C       0.280670      0.001336     -0.008953
  Cl      2.131060      0.002803     -0.021579
  H      -0.044191     -0.783310      0.652575
  H      -0.052681     -0.178107     -1.017508
  H      -0.046560      0.964941      0.342846
  F      -2.268298     -0.007664      0.052618
6
Coordinates from ORCA-job neb_MEP_ALL E -600.135274110799
  C       0.278211      0.001243     -0.008359
  Cl      2.128427      0.002913     -0.022324
  H      -0.047999     -0.782831      0.652788
  H      -0.057963     -0.178139     -1.016306
  H      -0.050895      0.964197      0.343335
  F      -2.249781     -0.007383      0.050866
6
Coordinates from ORCA-job neb_MEP_ALL E -600.135140304976
  C       0.263194      0.001047     -0.007113
  Cl      2.120079      0.003221     -0.024303
  H      -0.057438     -0.784213      0.655469
  H      -0.071377     -0.178592     -1.015514
  H      -0.061698      0.965144      0.345540
  F      -2.192760     -0.006607      0.045921
6
Coordinates from ORCA-job neb_MEP_ALL E -600.134492848992
  C       0.230474      0.000827     -0.005677
  Cl      2.113569      0.003478     -0.025973
  H      -0.065391     -0.789459      0.661165
  H      -0.083297     -0.179836     -1.019765
  H      -0.070928      0.970880      0.349182
  F      -2.124427     -0.005889      0.041068
6
Coordinates from ORCA-job neb_MEP_ALL E -600.133530889536
  C       0.194606      0.000686     -0.004819
  Cl      2.117177      0.003565     -0.026487
  H      -0.067397     -0.795693      0.666776
  H      -0.087117     -0.181230     -1.026807
  H      -0.073535      0.978247      0.352309
  F      -2.083734     -0.005575      0.039029
6
Coordinates from ORCA-job neb_MEP_ALL E -600.132461996944
  C       0.160059      0.000575     -0.004145
  Cl      2.125869      0.003596     -0.026701
  H      -0.067314     -0.800799      0.671161
  H      -0.087866     -0.182374     -1.033058
  H      -0.073735      0.984432      0.354665
  F      -2.057013     -0.005431      0.038078
6
Coordinates from ORCA-job neb_MEP_ALL E -600.131510073468
  C       0.128661      0.000467     -0.003499
  Cl      2.135933      0.003622     -0.026909
  H      -0.066721     -0.804601      0.674417
  H      -0.087828     -0.183240     -1.037830
  H      -0.073334      0.989083      0.356423
  F      -2.036710     -0.005331      0.037397
6
Coordinates from ORCA-job neb_MEP_ALL E -600.130804453340
  C       0.099447      0.000353     -0.002862
  Cl      2.146251      0.003651     -0.027119
  H      -0.065808     -0.807514      0.676915
  H      -0.087369     -0.183913     -1.041537
  H      -0.072580      0.992666      0.357779
  F      -2.019940     -0.005243      0.036824
6
Coordinates from ORCA-job neb_MEP_ALL E -600.130407107746
  C       0.071008      0.000241     -0.002216
  Cl      2.156676      0.003680     -0.027322
  H      -0.064587     -0.809872      0.678930
  H      -0.086539     -0.184463     -1.044586
  H      -0.071497      0.995581      0.358874
  F      -2.005061     -0.005166      0.036321
6
Coordinates from ORCA-job neb_MEP_ALL E -600.130370676168
  C       0.042662      0.000120     -0.001541
  Cl      2.167224      0.003707     -0.027522
  H      -0.063061     -0.811808      0.680576
  H      -0.085355     -0.184922     -1.047153
  H      -0.070090      0.998002      0.359771
  F      -1.991380     -0.005099      0.035869
6
Coordinates from ORCA-job neb_MEP_ALL E -600.130721617502
  C       0.015869      0.000010     -0.000910
  Cl      2.177138      0.003733     -0.027710
  H      -0.061414     -0.813176      0.681738
  H      -0.083975     -0.185251     -1.049000
  H      -0.068529      0.999729      0.360410
  F      -1.979089     -0.005045      0.035473
6
Coordinates from ORCA-job neb_MEP_ALL E -600.131447190471
  C      -0.009917     -0.000078     -0.000356
  Cl      2.186558      0.003759     -0.027888
  H      -0.059739     -0.814167      0.682581
  H      -0.082515     -0.185486     -1.050315
  H      -0.066920      1.000968      0.360868
  F      -1.967467     -0.004995      0.035111
6
Coordinates from ORCA-job neb_MEP_ALL E -600.132612432373
  C      -0.036531     -0.000142      0.000062
  Cl      2.196139      0.003783     -0.028062
  H      -0.057939     -0.814876      0.683186
  H      -0.080919     -0.185632     -1.051121
  H      -0.065184      1.001814      0.361186
  F      -1.955565     -0.004947      0.034749
6
Coordinates from ORCA-job neb_MEP_ALL E -600.134674576499
  C      -0.067223     -0.000310      0.001114
  Cl      2.206997      0.003811     -0.028264
  H      -0.055800     -0.814868      0.683167
  H      -0.079033     -0.185707     -1.051563
  H      -0.063125      1.001962      0.361226
  F      -1.941816     -0.004887      0.034318
6
Coordinates from ORCA-job neb_MEP_ALL E -600.140808028623
  C      -0.133181     -0.000238      0.001335
  Cl      2.229477      0.003865     -0.028698
  H      -0.051439     -0.813575      0.682210
  H      -0.075177     -0.185293     -1.048876
  H      -0.058948      0.999991      0.360683
  F      -1.910731     -0.004751      0.033346
6
Coordinates from ORCA-job neb_MEP_ALL E -600.145935416988
  C      -0.174935     -0.000658      0.002413
  Cl      2.243619      0.003925     -0.029088
  H      -0.049057     -0.812003      0.681011
  H      -0.072996     -0.185014     -1.047142
  H      -0.056617      0.998381      0.360227
  F      -1.890013     -0.004631      0.032580
6
Coordinates from ORCA-job neb_MEP_ALL E -600.152159248463
  C      -0.218161     -0.000123      0.004747
  Cl      2.260113      0.004014     -0.029851
  H      -0.048013     -0.809311      0.678990
  H      -0.072195     -0.184646     -1.044291
  H      -0.055736      0.994540      0.359178
  F      -1.866008     -0.004473      0.031227
6
Coordinates from ORCA-job neb_MEP_ALL E -600.158695638818
  C      -0.260677     -0.001601      0.003483
  Cl      2.279307      0.004108     -0.030401
  H      -0.048543     -0.804809      0.675660
  H      -0.073536     -0.183344     -1.036718
  H      -0.056364      0.989869      0.357889
  F      -1.840188     -0.004223      0.030086
6
Coordinates from ORCA-job neb_MEP_ALL E -600.165231330277
  C      -0.314139      0.000776     -0.000733
  Cl      2.307776      0.004049     -0.029974
  H      -0.047544     -0.800691      0.672019
  H      -0.073961     -0.181673     -1.026783
  H      -0.056061      0.981928      0.354958
  F      -1.816071     -0.004388      0.030513
6
Coordinates from ORCA-job neb_MEP_ALL E -600.168291742835
  C      -0.346337     -0.001593      0.006915
  Cl      2.335132      0.004111     -0.030309
  H      -0.048698     -0.794293      0.666358
  H      -0.072873     -0.181407     -1.026268
  H      -0.056217      0.977473      0.352924
  F      -1.811007     -0.004291      0.030381
6
Coordinates from ORCA-job neb_MEP_ALL E -600.170673971652
  C      -0.372754     -0.000405      0.003673
  Cl      2.373870      0.004242     -0.031216
  H      -0.047448     -0.797124      0.669526
  H      -0.074467     -0.181680     -1.025763
  H      -0.056057      0.979119      0.354545
  F      -1.823143     -0.004152      0.029234
6
Coordinates from ORCA-job neb_MEP_ALL E -600.172985168255
  C      -0.397305     -0.000774      0.004577
  Cl      2.408515      0.004020     -0.029006
  H      -0.043948     -0.792293      0.664099
  H      -0.075845     -0.180385     -1.021032
  H      -0.053966      0.973657      0.350972
  F      -1.837451     -0.004225      0.030389
6
Coordinates from ORCA-job neb_MEP_ALL E -600.174949011551
  C      -0.421975     -0.000792      0.005098
  Cl      2.475015      0.004099     -0.030239
  H      -0.054954     -0.785420      0.658541
  H      -0.085872     -0.178788     -1.011769
  H      -0.064794      0.965170      0.348122
  F      -1.847420     -0.004269      0.030246
6
Coordinates from ORCA-job neb_MEP_ALL E -600.176952497395
  C      -0.461964     -0.000695      0.005185
  Cl      2.658177      0.004404     -0.032080
  H      -0.090559     -0.780762      0.654635
  H      -0.120879     -0.177840     -1.005471
  H      -0.100169      0.959306      0.346178
  F      -1.884607     -0.004413      0.031553
6
Coordinates from ORCA-job neb_MEP_ALL E -600.173324335993
  C      -0.447888     -0.000831      0.006815
  Cl      2.503662      0.004815     -0.037400
  H      -0.072632     -0.788955      0.665490
  H      -0.094204     -0.179982     -1.012167
  H      -0.079981      0.968499      0.353746
  F      -1.808957     -0.003546      0.023517
6
Coordinates from ORCA-job neb_MEP_ALL E -600.134564299856
  C       0.308438      0.001548     -0.010576
  Cl      2.140610      0.002551     -0.019709
  H      -0.030064     -0.791634      0.657690
  H      -0.035298     -0.179551     -1.029714
  H      -0.031425      0.975489      0.344389
  F      -2.352262     -0.008402      0.057921
6
Coordinates from ORCA-job neb_MEP_ALL E -600.135268440542
  C       0.285818      0.001373     -0.009169
  Cl      2.127628      0.002803     -0.021574
  H      -0.044980     -0.784831      0.653890
  H      -0.053398     -0.178443     -1.019296
  H      -0.047323      0.966759      0.343556
  F      -2.267745     -0.007661      0.052594
6
Coordinates from ORCA-job neb_MEP_ALL E -600.135273112359
  C       0.279486      0.001305     -0.008698
  Cl      2.126352      0.002915     -0.022339
  H      -0.047949     -0.783707      0.653543
  H      -0.057807     -0.178276     -1.017030
  H      -0.050810      0.965138      0.343702
  F      -2.249271     -0.007376      0.050823
6
Coordinates from ORCA-job neb_MEP_ALL E -600.135150976929
  C       0.262315      0.001105     -0.007389
  Cl      2.119572      0.003227     -0.024344
  H      -0.056978     -0.785664      0.656695
  H      -0.070797     -0.178861     -1.017007
  H      -0.061194      0.966796      0.346149
  F      -2.192918     -0.006603      0.045896
6
Coordinates from ORCA-job neb_MEP_ALL E -600.134481826158
  C       0.229073      0.000895     -0.005977
  Cl      2.114408      0.003482     -0.026001
  H      -0.064711     -0.790974      0.662429
  H      -0.082441     -0.180122     -1.021376
  H      -0.070189      0.972614      0.349803
  F      -2.126140     -0.005895      0.041122
6
Coordinates from ORCA-job neb_MEP_ALL E -600.133525556068
  C       0.193844      0.000775     -0.005185
  Cl      2.118615      0.003563     -0.026497
  H      -0.066790     -0.797033      0.667886
  H      -0.086207     -0.181476     -1.028221
  H      -0.072824      0.979769      0.352843
  F      -2.086637     -0.005596      0.039173
6
Coordinates from ORCA-job neb_MEP_ALL E -600.132462576698
  C       0.160117      0.000690     -0.004597
  Cl      2.127629      0.003595     -0.026738
  H      -0.067006     -0.802081      0.672250
  H      -0.087235     -0.182598     -1.034301
  H      -0.073315      0.985843      0.355192
  F      -2.060190     -0.005449      0.038193
6
Coordinates from ORCA-job neb_MEP_ALL E -600.131521992889
  C       0.128994      0.000619     -0.004081
  Cl      2.138182      0.003622     -0.026960
  H      -0.066540     -0.805989      0.675614
  H      -0.087334     -0.183467     -1.039047
  H      -0.073044      0.990558      0.356994
  F      -2.040257     -0.005343      0.037480
6
Coordinates from ORCA-job neb_MEP_ALL E -600.130819882909
  C       0.099594      0.000562     -0.003620
  Cl      2.148985      0.003647     -0.027160
  H      -0.065582     -0.809085      0.678265
  H      -0.086823     -0.184150     -1.042798
  H      -0.072242      0.994280      0.358403
  F      -2.023932     -0.005255      0.036910
6
Coordinates from ORCA-job neb_MEP_ALL E -600.130422783524
  C       0.070868      0.000516     -0.003221
  Cl      2.159739      0.003670     -0.027336
  H      -0.064252     -0.811640      0.680441
  H      -0.085859     -0.184704     -1.045861
  H      -0.071040      0.997338      0.359546
  F      -2.009455     -0.005181      0.036430
6
Coordinates from ORCA-job neb_MEP_ALL E -600.130394364841
  C       0.042466      0.000487     -0.002877
  Cl      2.170420      0.003689     -0.027493
  H      -0.062627     -0.813753      0.682230
  H      -0.084535     -0.185149     -1.048347
  H      -0.069518      0.999845      0.360471
  F      -1.996206     -0.005119      0.036016
6
Coordinates from ORCA-job neb_MEP_ALL E -600.130748722452
  C       0.015339      0.000469     -0.002576
  Cl      2.180510      0.003705     -0.027627
  H      -0.060870     -0.815291      0.683522
  H      -0.083016     -0.185463     -1.050110
  H      -0.067836      1.001650      0.361127
  F      -1.984127     -0.005069      0.035664
6
Coordinates from ORCA-job neb_MEP_ALL E -600.131482046716
  C      -0.010894      0.000422     -0.002220
  Cl      2.190156      0.003722     -0.027753
  H      -0.059083     -0.816397      0.684445
  H      -0.081445     -0.185690     -1.051404
  H      -0.066118      1.002965      0.361597
  F      -1.972616     -0.005022      0.035334
6
Coordinates from ORCA-job neb_MEP_ALL E -600.132674754995
  C      -0.037862      0.000338     -0.001676
  Cl      2.199952      0.003738     -0.027880
  H      -0.057177     -0.817121      0.685033
  H      -0.079755     -0.185856     -1.052382
  H      -0.064279      1.003876      0.361902
  F      -1.960879     -0.004974      0.035003
6
Coordinates from ORCA-job neb_MEP_ALL E -600.134613383575
  C      -0.067820      0.000324     -0.001460
  Cl      2.210693      0.003751     -0.027991
  H      -0.054978     -0.817620      0.685431
  H      -0.077795     -0.185906     -1.052698
  H      -0.062160      1.004377      0.362060
  F      -1.947939     -0.004926      0.034658
6
Coordinates from ORCA-job neb_MEP_ALL E -600.140855695298
  C      -0.134734     -0.000024      0.000489
  Cl      2.233484      0.003780     -0.028257
  H      -0.050025     -0.816014      0.684014
  H      -0.073363     -0.185663     -1.051439
  H      -0.057384      1.002721      0.361384
  F      -1.917978     -0.004800      0.033809
6
Coordinates from ORCA-job neb_MEP_ALL E -600.146098083725
  C      -0.177367      0.000204      0.000732
  Cl      2.247721      0.003797     -0.028456
  H      -0.046980     -0.814263      0.682565
  H      -0.070616     -0.185194     -1.048616
  H      -0.054465      1.000184      0.360516
  F      -1.898292     -0.004728      0.033259
6
Coordinates from ORCA-job neb_MEP_ALL E -600.152320842576
  C      -0.222244     -0.000702      0.001156
  Cl      2.262755      0.003870     -0.028892
  H      -0.044195     -0.812206      0.681041
  H      -0.068085     -0.184704     -1.045709
  H      -0.051687      0.998306      0.360026
  F      -1.876544     -0.004565      0.032378
6
Coordinates from ORCA-job neb_MEP_ALL E -600.158740564392
  C      -0.266017      0.000607      0.004067
  Cl      2.281137      0.003964     -0.029805
  H      -0.044031     -0.805638      0.675839
  H      -0.068170     -0.183523     -1.037872
  H      -0.051835      0.988987      0.357129
  F      -1.851082     -0.004398      0.030642
6
Coordinates from ORCA-job neb_MEP_ALL E -600.165646435772
  C      -0.317283     -0.001165      0.003905
  Cl      2.308348      0.004000     -0.029970
  H      -0.044990     -0.799564      0.670889
  H      -0.069950     -0.182042     -1.029805
  H      -0.052794      0.982958      0.355009
  F      -1.823331     -0.004187      0.029971
6
Coordinates from ORCA-job neb_MEP_ALL E -600.168991832654
  C      -0.349647      0.000535      0.000440
  Cl      2.333127      0.003964     -0.029690
  H      -0.046161     -0.794426      0.666376
  H      -0.071770     -0.180294     -1.019719
  H      -0.054365      0.974598      0.351863
  F      -1.811184     -0.004376      0.030730
6
Coordinates from ORCA-job neb_MEP_ALL E -600.171395687512
  C      -0.376517     -0.000806      0.005080
  Cl      2.373797      0.004126     -0.030913
  H      -0.049917     -0.789751      0.663012
  H      -0.074295     -0.180148     -1.017914
  H      -0.057584      0.970754      0.351109
  F      -1.815484     -0.004175      0.029627
6
Coordinates from ORCA-job neb_MEP_ALL E -600.173068200247
  C      -0.395871     -0.000554      0.004313
  Cl      2.411642      0.004044     -0.029910
  H      -0.048084     -0.790795      0.663504
  H      -0.077218     -0.180198     -1.018669
  H      -0.057264      0.971635      0.351027
  F      -1.833206     -0.004132      0.029735
6
Coordinates from ORCA-job neb_MEP_ALL E -600.174991985442
  C      -0.421912     -0.000656      0.004869
  Cl      2.476354      0.004024     -0.030167
  H      -0.055570     -0.785263      0.658569
  H      -0.085803     -0.178803     -1.011493
  H      -0.065171      0.964892      0.348221
  F      -1.847898     -0.004195      0.030000
6
Coordinates from ORCA-job neb_MEP_ALL E -600.177029571157
  C      -0.462655     -0.000677      0.005261
  Cl      2.654081      0.004323     -0.032072
  H      -0.089038     -0.783263      0.657010
  H      -0.119345     -0.178441     -1.008522
  H      -0.098628      0.962314      0.347558
  F      -1.884416     -0.004258      0.030765
6
Coordinates from ORCA-job neb_MEP_ALL E -600.173324335993
  C      -0.447889     -0.000812      0.006767
  Cl      2.503666      0.004712     -0.037134
  H      -0.072735     -0.788953      0.665482
  H      -0.094104     -0.179977     -1.012177
  H      -0.079979      0.968502      0.353738
  F      -1.808960     -0.003471      0.023324
6
Coordinates from ORCA-job neb_MEP_ALL E -600.134564299856
  C       0.308438      0.001548     -0.010576
  Cl      2.140610      0.002551     -0.019709
  H      -0.030064     -0.791634      0.657690
  H      -0.035298     -0.179551     -1.029714
  H      -0.031425      0.975489      0.344389
  F      -2.352262     -0.008402      0.057921
6
Coordinates from ORCA-job neb_MEP_ALL E -600.135246406996
  C       0.285146      0.001398     -0.009318
  Cl      2.128671      0.002801     -0.021568
  H      -0.044871     -0.784744      0.653816
  H      -0.053217     -0.178403     -1.019067
  H      -0.047190      0.966615      0.343504
  F      -2.268539     -0.007667      0.052633
6
Coordinates from ORCA-job neb_MEP_ALL E -600.135283658547
  C       0.278859      0.001352     -0.008958
  Cl      2.126896      0.002919     -0.022364
  H      -0.048009     -0.783770      0.653626
  H      -0.057835     -0.178248     -1.016803
  H      -0.050860      0.965114      0.343731
  F      -2.249052     -0.007367      0.050768
6
Coordinates from ORCA-job neb_MEP_ALL E -600.135148859310
  C       0.261414      0.001148     -0.007606
  Cl      2.119676      0.003237     -0.024402
  H      -0.056792     -0.785564      0.656655
  H      -0.070635     -0.178800     -1.016554
  H      -0.061015      0.966562      0.346120
  F      -2.192648     -0.006584      0.045786
6
Coordinates from ORCA-job neb_MEP_ALL E -600.134476734461
  C       0.228264      0.000944     -0.006193
  Cl      2.114504      0.003493     -0.026068
  H      -0.064600     -0.791156      0.662636
  H      -0.082382     -0.180127     -1.021273
  H      -0.070093      0.972718      0.349909
  F      -2.125693     -0.005872      0.040990
6
Coordinates from ORCA-job neb_MEP_ALL E -600.133520144505
  C       0.193517      0.000835     -0.005435
  Cl      2.118830      0.003571     -0.026558
  H      -0.066838     -0.797377      0.668229
  H      -0.086257     -0.181517     -1.028325
  H      -0.072869      0.980067      0.353017
  F      -2.086383     -0.005580      0.039072
6
Coordinates from ORCA-job neb_MEP_ALL E -600.132475985501
  C       0.160115      0.000766     -0.004903
  Cl      2.128052      0.003604     -0.026808
  H      -0.067156     -0.802556      0.672713
  H      -0.087391     -0.182660     -1.034506
  H      -0.073463      0.986276      0.355427
  F      -2.060157     -0.005430      0.038077
6
Coordinates from ORCA-job neb_MEP_ALL E -600.131537834983
  C       0.129014      0.000721     -0.004482
  Cl      2.138760      0.003630     -0.027025
  H      -0.066618     -0.806563      0.676159
  H      -0.087412     -0.183535     -1.039281
  H      -0.073118      0.991071      0.357260
  F      -2.040625     -0.005323      0.037369
6
Coordinates from ORCA-job neb_MEP_ALL E -600.130829905603
  C       0.099546      0.000695     -0.004138
  Cl      2.149561      0.003652     -0.027210
  H      -0.065570     -0.809731      0.678869
  H      -0.086790     -0.184216     -1.043019
  H      -0.072218      0.994839      0.358684
  F      -2.024530     -0.005238      0.036814
6
Coordinates from ORCA-job neb_MEP_ALL E -600.130435737648
  C       0.070950      0.000681     -0.003874
  Cl      2.160179      0.003671     -0.027367
  H      -0.064208     -0.812317      0.681072
  H      -0.085774     -0.184758     -1.046003
  H      -0.070977      0.997888      0.359826
  F      -2.010169     -0.005165      0.036346
6
Coordinates from ORCA-job neb_MEP_ALL E -600.130403611224
  C       0.042612      0.000689     -0.003680
  Cl      2.170804      0.003686     -0.027508
  H      -0.062605     -0.814437      0.682874
  H      -0.084467     -0.185184     -1.048359
  H      -0.069476      1.000348      0.360744
  F      -1.996868     -0.005102      0.035929
6
Coordinates from ORCA-job neb_MEP_ALL E -600.130761697020
  C       0.015601      0.000704     -0.003509
  Cl      2.180913      0.003698     -0.027628
  H      -0.060912     -0.816035      0.684226
  H      -0.083030     -0.185493     -1.050074
  H      -0.067867      1.002177      0.361420
  F      -1.984705     -0.005050      0.035565
6
Coordinates from ORCA-job neb_MEP_ALL E -600.131508880828
  C      -0.010585      0.000682     -0.003258
  Cl      2.190645      0.003711     -0.027741
  H      -0.059192     -0.817224      0.685229
  H      -0.081557     -0.185727     -1.051375
  H      -0.066228      1.003557      0.361927
  F      -1.973083     -0.004999      0.035218
6
Coordinates from ORCA-job neb_MEP_ALL E -600.132720049087
  C      -0.037220      0.000616     -0.002819
  Cl      2.200452      0.003725     -0.027856
  H      -0.057393     -0.818066      0.685930
  H      -0.080004     -0.185909     -1.052414
  H      -0.064509      1.004581      0.362291
  F      -1.961327     -0.004947      0.034869
6
Coordinates from ORCA-job neb_MEP_ALL E -600.134610365381
  C      -0.066776      0.000539     -0.002334
  Cl      2.211235      0.003739     -0.027974
  H      -0.055359     -0.818753      0.686491
  H      -0.078231     -0.186051     -1.053252
  H      -0.062561      1.005419      0.362574
  F      -1.948308     -0.004891      0.034495
6
Coordinates from ORCA-job neb_MEP_ALL E -600.140876847024
  C      -0.134179      0.000325     -0.001084
  Cl      2.234991      0.003759     -0.028179
  H      -0.050524     -0.818465      0.686178
  H      -0.073989     -0.185980     -1.052984
  H      -0.057924      1.005132      0.362388
  F      -1.918376     -0.004771      0.033680
6
Coordinates from ORCA-job neb_MEP_ALL E -600.146155579882
  C      -0.177113      0.000009      0.000541
  Cl      2.249974      0.003771     -0.028298
  H      -0.047470     -0.816546      0.684484
  H      -0.071243     -0.185679     -1.051448
  H      -0.054967      1.003136      0.361567
  F      -1.899181     -0.004691      0.033154
6
Coordinates from ORCA-job neb_MEP_ALL E -600.152419581442
  C      -0.223048      0.000358      0.000658
  Cl      2.265279      0.003774     -0.028406
  H      -0.043705     -0.815461      0.683519
  H      -0.067800     -0.185328     -1.049385
  H      -0.051353      1.001301      0.360876
  F      -1.879373     -0.004642      0.032738
6
Coordinates from ORCA-job neb_MEP_ALL E -600.159019129444
  C      -0.272104     -0.000505      0.000300
  Cl      2.283910      0.003872     -0.029030
  H      -0.040867     -0.810553      0.679775
  H      -0.065359     -0.184084     -1.041879
  H      -0.048532      0.995701      0.359246
  F      -1.857047     -0.004431      0.031588
6
Coordinates from ORCA-job neb_MEP_ALL E -600.165877282564
  C      -0.319667     -0.000339      0.005806
  Cl      2.309175      0.003980     -0.029910
  H      -0.041421     -0.803622      0.674157
  H      -0.065962     -0.183206     -1.036272
  H      -0.049259      0.987395      0.356526
  F      -1.832867     -0.004208      0.029693
6
Coordinates from ORCA-job neb_MEP_ALL E -600.169146026253
  C      -0.354320     -0.000502      0.003351
  Cl      2.334541      0.003968     -0.029754
  H      -0.042852     -0.797351      0.668855
  H      -0.068785     -0.181317     -1.025712
  H      -0.051049      0.979363      0.353569
  F      -1.817535     -0.004161      0.029691
6
Coordinates from ORCA-job neb_MEP_ALL E -600.171660413036
  C      -0.380930     -0.000233      0.003269
  Cl      2.370612      0.004035     -0.030259
  H      -0.047537     -0.789343      0.662294
  H      -0.072718     -0.179576     -1.015345
  H      -0.055517      0.969334      0.350172
  F      -1.813909     -0.004217      0.029870
6
Coordinates from ORCA-job neb_MEP_ALL E -600.173216974679
  C      -0.398302     -0.000544      0.004550
  Cl      2.411915      0.004056     -0.030202
  H      -0.050414     -0.787540      0.660921
  H      -0.077947     -0.179497     -1.014447
  H      -0.059096      0.967627      0.349753
  F      -1.826155     -0.004103      0.029425
6
Coordinates from ORCA-job neb_MEP_ALL E -600.175022855964
  C      -0.421525     -0.000545      0.004706
  Cl      2.477632      0.004009     -0.030133
  H      -0.056879     -0.784521      0.658067
  H      -0.086765     -0.178659     -1.010394
  H      -0.066383      0.963870      0.348008
  F      -1.846080     -0.004154      0.029747
6
Coordinates from ORCA-job neb_MEP_ALL E -600.177028310927
  C      -0.464051     -0.000651      0.005264
  Cl      2.654256      0.004298     -0.031994
  H      -0.089020     -0.783362      0.657200
  H      -0.119202     -0.178489     -1.008625
  H      -0.098570      0.962409      0.347716
  F      -1.883413     -0.004205      0.030440
6
Coordinates from ORCA-job neb_MEP_ALL E -600.173324335993
  C      -0.447889     -0.000805      0.006734
  Cl      2.503669      0.004674     -0.036951
  H      -0.072796     -0.788953      0.665475
  H      -0.094033     -0.179974     -1.012184
  H      -0.079990      0.968502      0.353733
  F      -1.808961     -0.003444      0.023192
6
Coordinates from ORCA-job neb_MEP_ALL E -600.134564299856
  C       0.308438      0.001548     -0.010576
  Cl      2.140610      0.002551     -0.019709
  H      -0.030064     -0.791634      0.657690
  H      -0.035298     -0.179551     -1.029714
  H      -0.031425      0.975489      0.344389
  F      -2.352262     -0.008402      0.057921
6
Coordinates from ORCA-job neb_MEP_ALL E -600.135245034400
  C       0.281735      0.001393     -0.009285
  Cl      2.131298      0.002799     -0.021556
  H      -0.043938     -0.783441      0.652683
  H      -0.052267     -0.178097     -1.017440
  H      -0.046253      0.965027      0.342878
  F      -2.270575     -0.007680      0.052720
6
Coordinates from ORCA-job neb_MEP_ALL E -600.135286566734
  C       0.277352      0.001336     -0.008868
  Cl      2.128143      0.002929     -0.022428
  H      -0.048014     -0.783202      0.653188
  H      -0.057987     -0.178134     -1.016074
  H      -0.050915      0.964420      0.343527
  F      -2.248580     -0.007348      0.050654
6
Coordinates from ORCA-job neb_MEP_ALL E -600.135155156883
  C       0.260884      0.001129     -0.007502
  Cl      2.119940      0.003260     -0.024527
  H      -0.056786     -0.784637      0.655960
  H      -0.070925     -0.178610     -1.015280
  H      -0.061110      0.965400      0.345806
  F      -2.192004     -0.006542      0.045543
6
Coordinates from ORCA-job neb_MEP_ALL E -600.134459188887
  C       0.227645      0.000917     -0.006050
  Cl      2.113969      0.003525     -0.026245
  H      -0.064870     -0.790457      0.662177
  H      -0.083095     -0.179993     -1.020221
  H      -0.070510      0.971817      0.349743
  F      -2.123140     -0.005808      0.040597
6
Coordinates from ORCA-job neb_MEP_ALL E -600.133511170839
  C       0.192902      0.000804     -0.005282
  Cl      2.118085      0.003604     -0.026731
  H      -0.067191     -0.796841      0.667904
  H      -0.087057     -0.181422     -1.027496
  H      -0.073369      0.979372      0.352923
  F      -2.083370     -0.005517      0.038682
6
Coordinates from ORCA-job neb_MEP_ALL E -600.132474855597
  C       0.159465      0.000731     -0.004740
  Cl      2.127260      0.003637     -0.026979
  H      -0.067419     -0.802060      0.672417
  H      -0.088103     -0.182576     -1.033745
  H      -0.073873      0.985636      0.355346
  F      -2.057330     -0.005369      0.037702
6
Coordinates from ORCA-job neb_MEP_ALL E -600.131542430501
  C       0.128422      0.000680     -0.004296
  Cl      2.137760      0.003661     -0.027188
  H      -0.066748     -0.806015      0.675810
  H      -0.087976     -0.183443     -1.038498
  H      -0.073391      0.990384      0.357150
  F      -2.038068     -0.005267      0.037022
6
Coordinates from ORCA-job neb_MEP_ALL E -600.130828655658
  C       0.099223      0.000637     -0.003906
  Cl      2.148238      0.003684     -0.027367
  H      -0.065653     -0.809080      0.678427
  H      -0.087293     -0.184111     -1.042173
  H      -0.072439      0.994055      0.358533
  F      -2.022075     -0.005185      0.036487
6
Coordinates from ORCA-job neb_MEP_ALL E -600.130428778841
  C       0.071116      0.000595     -0.003549
  Cl      2.158523      0.003704     -0.027527
  H      -0.064328     -0.811527      0.680512
  H      -0.086314     -0.184639     -1.045090
  H      -0.071236      0.996979      0.359627
  F      -2.007762     -0.005113      0.036028
6
Coordinates from ORCA-job neb_MEP_ALL E -600.130393321655
  C       0.043105      0.000562     -0.003207
  Cl      2.168969      0.003722     -0.027680
  H      -0.062798     -0.813504      0.682195
  H      -0.085096     -0.185059     -1.047418
  H      -0.069814      0.999330      0.360505
  F      -1.994366     -0.005049      0.035605
6
Coordinates from ORCA-job neb_MEP_ALL E -600.130745482977
  C       0.016595      0.000529     -0.002878
  Cl      2.178921      0.003736     -0.027819
  H      -0.061215     -0.815009      0.683476
  H      -0.083792     -0.185376     -1.049174
  H      -0.068326      1.001115      0.361171
  F      -1.982183     -0.004995      0.035224
6
Coordinates from ORCA-job neb_MEP_ALL E -600.131487650654
  C      -0.009122      0.000493     -0.002547
  Cl      2.188524      0.003752     -0.027950
  H      -0.059608     -0.816168      0.684462
  H      -0.082445     -0.185619     -1.050514
  H      -0.066805      1.002486      0.361685
  F      -1.970545     -0.004943      0.034864
6
Coordinates from ORCA-job neb_MEP_ALL E -600.132687420231
  C      -0.035115      0.000451     -0.002209
  Cl      2.198138      0.003768     -0.028081
  H      -0.057950     -0.817059      0.685225
  H      -0.081035     -0.185805     -1.051522
  H      -0.065229      1.003535      0.362084
  F      -1.958809     -0.004890      0.034504
6
Coordinates from ORCA-job neb_MEP_ALL E -600.134546095126
  C      -0.064334      0.000418     -0.001906
  Cl      2.208819      0.003787     -0.028228
  H      -0.056083     -0.817833      0.685896
  H      -0.079425     -0.185949     -1.052290
  H      -0.063447      1.004409      0.362425
  F      -1.945530     -0.004832      0.034103
6
Coordinates from ORCA-job neb_MEP_ALL E -600.140833719802
  C      -0.132478      0.000200     -0.000547
  Cl      2.233455      0.003825     -0.028533
  H      -0.051713     -0.818066      0.686071
  H      -0.075616     -0.186017     -1.052721
  H      -0.059258      1.004759      0.362526
  F      -1.914389     -0.004700      0.033204
6
Coordinates from ORCA-job neb_MEP_ALL E -600.146124585297
  C      -0.175630      0.000402     -0.000778
  Cl      2.249126      0.003832     -0.028652
  H      -0.048921     -0.817575      0.685664
  H      -0.073292     -0.185745     -1.051103
  H      -0.056635      1.003720      0.362170
  F      -1.894649     -0.004633      0.032699
6
Coordinates from ORCA-job neb_MEP_ALL E -600.152377034204
  C      -0.221803     -0.000679      0.001262
  Cl      2.265880      0.003852     -0.028695
  H      -0.045840     -0.815005      0.683376
  H      -0.070432     -0.185356     -1.049431
  H      -0.053545      1.001721      0.361244
  F      -1.874259     -0.004533      0.032244
6
Coordinates from ORCA-job neb_MEP_ALL E -600.159381792097
  C      -0.273043      0.000836      0.003150
  Cl      2.285426      0.003856     -0.028942
  H      -0.041812     -0.812796      0.681360
  H      -0.066581     -0.185002     -1.046971
  H      -0.049795      0.997646      0.359727
  F      -1.854195     -0.004540      0.031676
6
Coordinates from ORCA-job neb_MEP_ALL E -600.165743643041
  C      -0.321652     -0.000997      0.001702
  Cl      2.309915      0.003997     -0.029882
  H      -0.039597     -0.807166      0.677300
  H      -0.065077     -0.183456     -1.037665
  H      -0.047529      0.991827      0.358268
  F      -1.836060     -0.004205      0.030277
6
Coordinates from ORCA-job neb_MEP_ALL E -600.169404900230
  C      -0.357801     -0.000180      0.005016
  Cl      2.337689      0.004061     -0.030360
  H      -0.040679     -0.800159      0.671477
  H      -0.067018     -0.182234     -1.030149
  H      -0.049117      0.982600      0.355096
  F      -1.823075     -0.004087      0.028920
6
Coordinates from ORCA-job neb_MEP_ALL E -600.171694837301
  C      -0.384712     -0.000723      0.004758
  Cl      2.371380      0.004062     -0.030279
  H      -0.044287     -0.791841      0.664299
  H      -0.070853     -0.180256     -1.019463
  H      -0.052652      0.972862      0.351322
  F      -1.818877     -0.004104      0.029363
6
Coordinates from ORCA-job neb_MEP_ALL E -600.173300998974
  C      -0.401336     -0.000456      0.004196
  Cl      2.410756      0.004086     -0.030318
  H      -0.049568     -0.786548      0.659995
  H      -0.077346     -0.179122     -1.012490
  H      -0.058331      0.966159      0.349117
  F      -1.824174     -0.004120      0.029499
6
Coordinates from ORCA-job neb_MEP_ALL E -600.175063293340
  C      -0.421873     -0.000574      0.004786
  Cl      2.479634      0.004047     -0.030284
  H      -0.057774     -0.783957      0.657647
  H      -0.087935     -0.178567     -1.009730
  H      -0.067356      0.963200      0.347837
  F      -1.844697     -0.004148      0.029744
6
Coordinates from ORCA-job neb_MEP_ALL E -600.177028486235
  C      -0.463755     -0.000652      0.005222
  Cl      2.659135      0.004321     -0.032017
  H      -0.091206     -0.782336      0.656303
  H      -0.121654     -0.178271     -1.007438
  H      -0.100829      0.961175      0.347234
  F      -1.881690     -0.004237      0.030696
6
Coordinates from ORCA-job neb_MEP_ALL E -600.173324335993
  C      -0.447889     -0.000810      0.006757
  Cl      2.503667      0.004700     -0.037077
  H      -0.072754     -0.788954      0.665479
  H      -0.094082     -0.179975     -1.012180
  H      -0.079982      0.968501      0.353738
  F      -1.808960     -0.003463      0.023283
6
Coordinates from ORCA-job neb_MEP_ALL E -600.134564299856
  C       0.308438      0.001548     -0.010576
  Cl      2.140610      0.002551     -0.019709
  H      -0.030064     -0.791634      0.657690
  H      -0.035298     -0.179551     -1.029714
  H      -0.031425      0.975489      0.344389
  F      -2.352262     -0.008402      0.057921
6
Coordinates from ORCA-job neb_MEP_ALL E -600.135262514357
  C       0.280469      0.001377     -0.009188
  Cl      2.132156      0.002797     -0.021546
  H      -0.043294     -0.782697      0.652026
  H      -0.051650     -0.177932     -1.016587
  H      -0.045618      0.964144      0.342518
  F      -2.272062     -0.007688      0.052778
6
Coordinates from ORCA-job neb_MEP_ALL E -600.135285565427
  C       0.276697      0.001297     -0.008648
  Cl      2.128353      0.002939     -0.022491
  H      -0.047987     -0.782857      0.652930
  H      -0.058139     -0.178090     -1.015758
  H      -0.050950      0.964041      0.343428
  F      -2.247974     -0.007330      0.050540
6
Coordinates from ORCA-job neb_MEP_ALL E -600.135154804529
  C       0.260851      0.001086     -0.007280
  Cl      2.119947      0.003283     -0.024649
  H      -0.056816     -0.784224      0.655686
  H      -0.071270     -0.178555     -1.014795
  H      -0.061248      0.964914      0.345721
  F      -2.191464     -0.006504      0.045318
6
Coordinates from ORCA-job neb_MEP_ALL E -600.134449314114
  C       0.227123      0.000863     -0.005785
  Cl      2.113523      0.003557     -0.026421
  H      -0.065086     -0.790076      0.661969
  H      -0.083764     -0.179951     -1.019712
  H      -0.070877      0.971355      0.349717
  F      -2.120920     -0.005749      0.040232
6
Coordinates from ORCA-job neb_MEP_ALL E -600.133480058704
  C       0.192150      0.000743     -0.005001
  Cl      2.117523      0.003636     -0.026903
  H      -0.067372     -0.796427      0.667665
  H      -0.087691     -0.181374     -1.026972
  H      -0.073700      0.978882      0.352881
  F      -2.080910     -0.005460      0.038329
6
Coordinates from ORCA-job neb_MEP_ALL E -600.132442572931
  C       0.158677      0.000659     -0.004419
  Cl      2.126571      0.003670     -0.027148
  H      -0.067493     -0.801549      0.672088
  H      -0.088621     -0.182513     -1.033152
  H      -0.074096      0.985048      0.355259
  F      -2.055037     -0.005315      0.037372
6
Coordinates from ORCA-job neb_MEP_ALL E -600.131519658619
  C       0.127817      0.000588     -0.003906
  Cl      2.136844      0.003695     -0.027356
  H      -0.066772     -0.805389      0.675378
  H      -0.088437     -0.183368     -1.037847
  H      -0.073560      0.989691      0.357018
  F      -2.035893     -0.005217      0.036713
6
Coordinates from ORCA-job neb_MEP_ALL E -600.130827180501
  C       0.098963      0.000515     -0.003426
  Cl      2.147101      0.003719     -0.027540
  H      -0.065689     -0.808334      0.677892
  H      -0.087765     -0.184025     -1.041477
  H      -0.072622      0.993263      0.358360
  F      -2.019988     -0.005137      0.036192
6
Coordinates from ORCA-job neb_MEP_ALL E -600.130439038474
  C       0.071238      0.000439     -0.002947
  Cl      2.157222      0.003742     -0.027709
  H      -0.064399     -0.810669      0.679879
  H      -0.086823     -0.184549     -1.044384
  H      -0.071456      0.996104      0.359419
  F      -2.005781     -0.005067      0.035742
6
Coordinates from ORCA-job neb_MEP_ALL E -600.130404780265
  C       0.043578      0.000356     -0.002446
  Cl      2.167532      0.003762     -0.027873
  H      -0.062902     -0.812549      0.681476
  H      -0.085642     -0.184973     -1.046757
  H      -0.070070      0.998409      0.360272
  F      -1.992496     -0.005005      0.035328
6
Coordinates from ORCA-job neb_MEP_ALL E -600.130744319842
  C       0.017462      0.000276     -0.001963
  Cl      2.177327      0.003781     -0.028026
  H      -0.061353     -0.813962      0.682676
  H      -0.084368     -0.185295     -1.048560
  H      -0.068613      1.000154      0.360917
  F      -1.980455     -0.004953      0.034956
6
Coordinates from ORCA-job neb_MEP_ALL E -600.131463975889
  C      -0.007879      0.000214     -0.001533
  Cl      2.186767      0.003799     -0.028171
  H      -0.059777     -0.815054      0.683604
  H      -0.083037     -0.185540     -1.049921
  H      -0.067118      1.001486      0.361413
  F      -1.968957     -0.004904      0.034608
6
Coordinates from ORCA-job neb_MEP_ALL E -600.132611544053
  C      -0.033546      0.000170     -0.001186
  Cl      2.196218      0.003818     -0.028313
  H      -0.058146     -0.815905      0.684333
  H      -0.081633     -0.185718     -1.050890
  H      -0.065560      1.002490      0.361796
  F      -1.957332     -0.004855      0.034261
6
Coordinates from ORCA-job neb_MEP_ALL E -600.134428986984
  C      -0.062531      0.000104     -0.000706
  Cl      2.206735      0.003841     -0.028479
  H      -0.056298     -0.816486      0.684840
  H      -0.080024     -0.185851     -1.051593
  H      -0.063789      1.003191      0.362072
  F      -1.944092     -0.004798      0.033865
6
Coordinates from ORCA-job neb_MEP_ALL E -600.140788934350
  C      -0.131370      0.000026      0.000100
  Cl      2.231535      0.003891     -0.028853
  H      -0.052086     -0.816623      0.685000
  H      -0.076323     -0.185821     -1.051318
  H      -0.059744      1.003195      0.362131
  F      -1.912013     -0.004667      0.032941
6
Coordinates from ORCA-job neb_MEP_ALL E -600.146124224695
  C      -0.175063     -0.000163      0.000974
  Cl      2.247444      0.003924     -0.029083
  H      -0.049560     -0.815931      0.684425
  H      -0.074122     -0.185676     -1.050510
  H      -0.057317      1.002425      0.361855
  F      -1.891382     -0.004579      0.032338
6
Coordinates from ORCA-job neb_MEP_ALL E -600.152504109296
  C      -0.220892      0.000238      0.000796
  Cl      2.264948      0.003934     -0.029232
  H      -0.047124     -0.813994      0.682804
  H      -0.072198     -0.185078     -1.046965
  H      -0.055087      0.999417      0.360802
  F      -1.869647     -0.004516      0.031794
6
Coordinates from ORCA-job neb_MEP_ALL E -600.159540155181
  C      -0.271743     -0.000870      0.002831
  Cl      2.285490      0.003954     -0.029281
  H      -0.044019     -0.811182      0.680294
  H      -0.069295     -0.184625     -1.044973
  H      -0.051943      0.997133      0.359749
  F      -1.848491     -0.004410      0.031380
6
Coordinates from ORCA-job neb_MEP_ALL E -600.165671734058
  C      -0.321865      0.000175      0.003075
  Cl      2.310620      0.004029     -0.029900
  H      -0.040838     -0.806138      0.676226
  H      -0.066501     -0.183423     -1.037270
  H      -0.049052      0.989707      0.357369
  F      -1.832364     -0.004350      0.030500
6
Coordinates from ORCA-job neb_MEP_ALL E -600.169490133614
  C      -0.358673     -0.000809      0.003989
  Cl      2.339354      0.004152     -0.030771
  H      -0.040722     -0.799896      0.671490
  H      -0.067085     -0.182108     -1.029203
  H      -0.049034      0.982741      0.355376
  F      -1.823839     -0.004079      0.029119
6
Coordinates from ORCA-job neb_MEP_ALL E -600.171810286699
  C      -0.385129     -0.000631      0.005137
  Cl      2.373945      0.004168     -0.030785
  H      -0.043070     -0.793698      0.666107
  H      -0.070463     -0.180777     -1.021797
  H      -0.051754      0.975003      0.352411
  F      -1.823529     -0.004064      0.028929
6
Coordinates from ORCA-job neb_MEP_ALL E -600.173302468874
  C      -0.402669     -0.000630      0.004636
  Cl      2.411520      0.004156     -0.030515
  H      -0.047960     -0.787384      0.660649
  H      -0.076369     -0.179327     -1.013751
  H      -0.056910      0.967311      0.349473
  F      -1.827613     -0.004126      0.029508
6
Coordinates from ORCA-job neb_MEP_ALL E -600.175102261483
  C      -0.422643     -0.000646      0.004889
  Cl      2.481513      0.004118     -0.030487
  H      -0.057837     -0.783980      0.657681
  H      -0.088404     -0.178603     -1.009859
  H      -0.067545      0.963290      0.347893
  F      -1.845084     -0.004179      0.029884
6
Coordinates from ORCA-job neb_MEP_ALL E -600.177072207516
  C      -0.462573     -0.000677      0.005201
  Cl      2.663508      0.004382     -0.032123
  H      -0.093238     -0.782040      0.656019
  H      -0.124124     -0.178213     -1.007175
  H      -0.103004      0.960841      0.347070
  F      -1.880569     -0.004294      0.031008
6
Coordinates from ORCA-job neb_MEP_ALL E -600.173324335993
  C      -0.447888     -0.000822      0.006797
  Cl      2.503664      0.004765     -0.037301
  H      -0.072674     -0.788955      0.665485
  H      -0.094168     -0.179977     -1.012171
  H      -0.079976      0.968499      0.353745
  F      -1.808958     -0.003510      0.023445
6
Coordinates from ORCA-job neb_MEP_ALL E -600.134564299856
  C       0.308438      0.001548     -0.010576
  Cl      2.140610      0.002551     -0.019709
  H      -0.030064     -0.791634      0.657690
  H      -0.035298     -0.179551     -1.029714
  H      -0.031425      0.975489      0.344389
  F      -2.352262     -0.008402      0.057921
6
Coordinates from ORCA-job neb_MEP_ALL E -600.135255834678
  C       0.282089      0.001367     -0.009134
  Cl      2.131072      0.002796     -0.021540
  H      -0.043169     -0.782895      0.652182
  H      -0.051551     -0.177986     -1.016914
  H      -0.045500      0.964412      0.342603
  F      -2.272941     -0.007693      0.052803
6
Coordinates from ORCA-job neb_MEP_ALL E -600.135277914585
  C       0.276964      0.001267     -0.008480
  Cl      2.127437      0.002951     -0.022564
  H      -0.047972     -0.782986      0.653074
  H      -0.058290     -0.178142     -1.015971
  H      -0.050992      0.964218      0.343536
  F      -2.247147     -0.007308      0.050404
6
Coordinates from ORCA-job neb_MEP_ALL E -600.135144891309
  C       0.260804      0.001050     -0.007092
  Cl      2.119639      0.003309     -0.024798
  H      -0.056759     -0.784617      0.656094
  H      -0.071519     -0.178672     -1.015265
  H      -0.061295      0.965391      0.345993
  F      -2.190871     -0.006461      0.045068
6
Coordinates from ORCA-job neb_MEP_ALL E -600.134422369186
  C       0.226211      0.000820     -0.005564
  Cl      2.113412      0.003593     -0.026617
  H      -0.065079     -0.790416      0.662365
  H      -0.084165     -0.180061     -1.020071
  H      -0.071006      0.971757      0.350001
  F      -2.119373     -0.005692      0.039885
6
Coordinates from ORCA-job neb_MEP_ALL E -600.133444577775
  C       0.191092      0.000697     -0.004777
  Cl      2.117591      0.003670     -0.027089
  H      -0.067283     -0.796577      0.667892
  H      -0.087964     -0.181445     -1.027131
  H      -0.073733      0.979066      0.353075
  F      -2.079704     -0.005410      0.038030
6
Coordinates from ORCA-job neb_MEP_ALL E -600.132410657991
  C       0.157837      0.000604     -0.004166
  Cl      2.126601      0.003704     -0.027340
  H      -0.067366     -0.801526      0.672170
  H      -0.088837     -0.182552     -1.033140
  H      -0.074084      0.985041      0.355383
  F      -2.054150     -0.005270      0.037093
6
Coordinates from ORCA-job neb_MEP_ALL E -600.131498086448
  C       0.127316      0.000518     -0.003607
  Cl      2.136803      0.003730     -0.027554
  H      -0.066670     -0.805265      0.675376
  H      -0.088674     -0.183394     -1.037764
  H      -0.073573      0.989584      0.357105
  F      -2.035201     -0.005173      0.036444
6
Coordinates from ORCA-job neb_MEP_ALL E -600.130818804820
  C       0.098797      0.000431     -0.003080
  Cl      2.147039      0.003756     -0.027742
  H      -0.065616     -0.808152      0.677838
  H      -0.088028     -0.184048     -1.041378
  H      -0.072663      0.993108      0.358426
  F      -2.019528     -0.005095      0.035936
6
Coordinates from ORCA-job neb_MEP_ALL E -600.130438116432
  C       0.071312      0.000341     -0.002556
  Cl      2.157174      0.003780     -0.027913
  H      -0.064329     -0.810462      0.679799
  H      -0.087082     -0.184573     -1.044312
  H      -0.071497      0.995942      0.359476
  F      -2.005578     -0.005028      0.035505
6
Coordinates from ORCA-job neb_MEP_ALL E -600.130402653424
  C       0.044011      0.000246     -0.002016
  Cl      2.167399      0.003801     -0.028074
  H      -0.062818     -0.812336      0.681382
  H      -0.085870     -0.185003     -1.046736
  H      -0.070091      0.998264      0.360324
  F      -1.992632     -0.004971      0.035120
6
Coordinates from ORCA-job neb_MEP_ALL E -600.130729123089
  C       0.018127      0.000155     -0.001501
  Cl      2.177091      0.003820     -0.028222
  H      -0.061233     -0.813722      0.682547
  H      -0.084532     -0.185323     -1.048555
  H      -0.068588      0.999996      0.360950
  F      -1.980866     -0.004925      0.034782
6
Coordinates from ORCA-job neb_MEP_ALL E -600.131425943125
  C      -0.007016      0.000079     -0.001035
  Cl      2.186419      0.003838     -0.028361
  H      -0.059618     -0.814774      0.683429
  H      -0.083131     -0.185563     -1.049919
  H      -0.067041      1.001301      0.361420
  F      -1.969613     -0.004882      0.034467
6
Coordinates from ORCA-job neb_MEP_ALL E -600.132541581985
  C      -0.032608      0.000017     -0.000614
  Cl      2.195791      0.003857     -0.028499
  H      -0.057927     -0.815556      0.684085
  H      -0.081641     -0.185735     -1.050889
  H      -0.065414      1.002254      0.361763
  F      -1.958201     -0.004838      0.034154
6
Coordinates from ORCA-job neb_MEP_ALL E -600.134320374196
  C      -0.061352     -0.000045     -0.000162
  Cl      2.206156      0.003878     -0.028648
  H      -0.056001     -0.816019      0.684474
  H      -0.079928     -0.185833     -1.051432
  H      -0.063555      1.002808      0.361966
  F      -1.945320     -0.004789      0.033803
6
Coordinates from ORCA-job neb_MEP_ALL E -600.140732666868
  C      -0.130701     -0.000160      0.000794
  Cl      2.230676      0.003930     -0.029022
  H      -0.051595     -0.815486      0.684058
  H      -0.075979     -0.185683     -1.050488
  H      -0.059299      1.002062      0.361740
  F      -1.913103     -0.004664      0.032918
6
Coordinates from ORCA-job neb_MEP_ALL E -600.146171487702
  C      -0.175739     -0.000216      0.001277
  Cl      2.246709      0.003969     -0.029289
  H      -0.048969     -0.814621      0.683373
  H      -0.073634     -0.185441     -1.049031
  H      -0.056764      1.000886      0.361365
  F      -1.891603     -0.004577      0.032306
6
Coordinates from ORCA-job neb_MEP_ALL E -600.152617632877
  C      -0.221296     -0.000552      0.002870
  Cl      2.264069      0.004021     -0.029640
  H      -0.046999     -0.811848      0.681084
  H      -0.071906     -0.184930     -1.046107
  H      -0.054855      0.997770      0.360277
  F      -1.869014     -0.004461      0.031516
6
Coordinates from ORCA-job neb_MEP_ALL E -600.159715308461
  C      -0.270691      0.000018      0.001529
  Cl      2.285154      0.004032     -0.029777
  H      -0.045109     -0.809051      0.678781
  H      -0.070808     -0.183948     -1.040315
  H      -0.053279      0.993357      0.358763
  F      -1.845267     -0.004408      0.031019
6
Coordinates from ORCA-job neb_MEP_ALL E -600.165896753216
  C      -0.321480     -0.000864      0.003813
  Cl      2.311639      0.004064     -0.029926
  H      -0.043107     -0.802669      0.673282
  H      -0.068869     -0.182735     -1.033846
  H      -0.051201      0.986510      0.356099
  F      -1.826982     -0.004306      0.030579
6
Coordinates from ORCA-job neb_MEP_ALL E -600.169587864317
  C      -0.358292     -0.000350      0.004221
  Cl      2.339780      0.004178     -0.030783
  H      -0.041928     -0.797359      0.669175
  H      -0.067766     -0.181585     -1.026324
  H      -0.050152      0.979340      0.353983
  F      -1.821642     -0.004225      0.029728
6
Coordinates from ORCA-job neb_MEP_ALL E -600.171841655011
  C      -0.383992     -0.000667      0.004327
  Cl      2.376080      0.004273     -0.031420
  H      -0.043581     -0.793228      0.666081
  H      -0.070772     -0.180661     -1.020419
  H      -0.052194      0.974338      0.352605
  F      -1.825541     -0.004056      0.028826
6
Coordinates from ORCA-job neb_MEP_ALL E -600.173354376750
  C      -0.402555     -0.000714      0.005090
  Cl      2.413963      0.004248     -0.031021
  H      -0.047125     -0.788576      0.661823
  H      -0.075645     -0.179684     -1.015417
  H      -0.056125      0.968831      0.350230
  F      -1.832512     -0.004105      0.029295
6
Coordinates from ORCA-job neb_MEP_ALL E -600.175140876980
  C      -0.423624     -0.000706      0.004992
  Cl      2.483971      0.004185     -0.030752
  H      -0.057736     -0.784250      0.657963
  H      -0.088461     -0.178709     -1.010307
  H      -0.067488      0.963680      0.348107
  F      -1.846662     -0.004200      0.029996
6
Coordinates from ORCA-job neb_MEP_ALL E -600.177091821645
  C      -0.461448     -0.000707      0.005232
  Cl      2.665944      0.004441     -0.032333
  H      -0.094432     -0.782926      0.656839
  H      -0.125758     -0.178434     -1.008345
  H      -0.104343      0.961934      0.347542
  F      -1.879963     -0.004309      0.031066
6
Coordinates from ORCA-job neb_MEP_ALL E -600.173324335993
  C      -0.447888     -0.000831      0.006833
  Cl      2.503661      0.004816     -0.037501
  H      -0.072605     -0.788957      0.665491
  H      -0.094245     -0.179979     -1.012164
  H      -0.079967      0.968498      0.353751
  F      -1.808956     -0.003547      0.023589
6
Coordinates from ORCA-job neb_MEP_ALL E -600.134564299856
  C       0.308438      0.001548     -0.010576
  Cl      2.140610      0.002551     -0.019709
  H      -0.030064     -0.791634      0.657690
  H      -0.035298     -0.179551     -1.029714
  H      -0.031425      0.975489      0.344389
  F      -2.352262     -0.008402      0.057921
6
Coordinates from ORCA-job neb_MEP_ALL E -600.135253975545
  C       0.283946      0.001376     -0.009188
  Cl      2.130058      0.002795     -0.021536
  H      -0.043362     -0.783444      0.652649
  H      -0.051724     -0.178110     -1.017592
  H      -0.045684      0.965078      0.342853
  F      -2.273235     -0.007695      0.052813
6
Coordinates from ORCA-job neb_MEP_ALL E -600.135278323048
  C       0.277346      0.001278     -0.008532
  Cl      2.126730      0.002957     -0.022604
  H      -0.047999     -0.783302      0.653366
  H      -0.058357     -0.178203     -1.016252
  H      -0.051034      0.964565      0.343695
  F      -2.246686     -0.007295      0.050327
6
Coordinates from ORCA-job neb_MEP_ALL E -600.135143268299
  C       0.260466      0.001056     -0.007110
  Cl      2.119396      0.003324     -0.024885
  H      -0.056650     -0.785154      0.656591
  H      -0.071524     -0.178785     -1.015794
  H      -0.061224      0.965996      0.346270
  F      -2.190464     -0.006437      0.044927
6
Coordinates from ORCA-job neb_MEP_ALL E -600.134397348054
  C       0.225434      0.000826     -0.005578
  Cl      2.113610      0.003609     -0.026715
  H      -0.064923     -0.790969      0.662881
  H      -0.084130     -0.180181     -1.020620
  H      -0.070890      0.972381      0.350293
  F      -2.119103     -0.005667      0.039739
6
Coordinates from ORCA-job neb_MEP_ALL E -600.133408954808
  C       0.190450      0.000708     -0.004807
  Cl      2.118075      0.003684     -0.027181
  H      -0.067111     -0.797037      0.668325
  H      -0.087859     -0.181545     -1.027586
  H      -0.073582      0.979583      0.353321
  F      -2.079974     -0.005393      0.037928
6
Coordinates from ORCA-job neb_MEP_ALL E -600.132366749711
  C       0.157509      0.000620     -0.004211
  Cl      2.127192      0.003719     -0.027440
  H      -0.067236     -0.801931      0.672562
  H      -0.088763     -0.182640     -1.033516
  H      -0.073972      0.985487      0.355609
  F      -2.054730     -0.005254      0.036995
6
Coordinates from ORCA-job neb_MEP_ALL E -600.131470211376
  C       0.127192      0.000542     -0.003685
  Cl      2.137495      0.003746     -0.027657
  H      -0.066567     -0.805677      0.675777
  H      -0.088622     -0.183479     -1.038117
  H      -0.073486      0.990025      0.357334
  F      -2.036012     -0.005157      0.036349
6
Coordinates from ORCA-job neb_MEP_ALL E -600.130805822688
  C       0.098762      0.000470     -0.003205
  Cl      2.147828      0.003770     -0.027840
  H      -0.065508     -0.808600      0.678268
  H      -0.087961     -0.184133     -1.041735
  H      -0.072568      0.993573      0.358662
  F      -2.020553     -0.005080      0.035851
6
Coordinates from ORCA-job neb_MEP_ALL E -600.130431011457
  C       0.071324      0.000402     -0.002753
  Cl      2.158018      0.003792     -0.028002
  H      -0.064199     -0.810959      0.680268
  H      -0.086978     -0.184659     -1.044669
  H      -0.071374      0.996439      0.359721
  F      -2.006790     -0.005016      0.035434
6
Coordinates from ORCA-job neb_MEP_ALL E -600.130395764545
  C       0.044159      0.000337     -0.002313
  Cl      2.168226      0.003810     -0.028151
  H      -0.062670     -0.812886      0.681893
  H      -0.085728     -0.185085     -1.047071
  H      -0.069942      0.998785      0.360576
  F      -1.994045     -0.004962      0.035067
6
Coordinates from ORCA-job neb_MEP_ALL E -600.130712797977
  C       0.018291      0.000279     -0.001904
  Cl      2.177922      0.003826     -0.028283
  H      -0.061059     -0.814321      0.683095
  H      -0.084347     -0.185399     -1.048860
  H      -0.068406      1.000532      0.361204
  F      -1.982402     -0.004918      0.034749
6
Coordinates from ORCA-job neb_MEP_ALL E -600.131392162757
  C      -0.006863      0.000220     -0.001501
  Cl      2.187265      0.003843     -0.028407
  H      -0.059417     -0.815403      0.683997
  H      -0.082910     -0.185635     -1.050212
  H      -0.066830      1.001852      0.361673
  F      -1.971245     -0.004876      0.034450
6
Coordinates from ORCA-job neb_MEP_ALL E -600.132488159675
  C      -0.032469      0.000156     -0.001072
  Cl      2.196661      0.003859     -0.028530
  H      -0.057695     -0.816193      0.684649
  H      -0.081386     -0.185808     -1.051210
  H      -0.065171      1.002821      0.362010
  F      -1.959941     -0.004834      0.034152
6
Coordinates from ORCA-job neb_MEP_ALL E -600.134217182322
  C      -0.061151      0.000085     -0.000585
  Cl      2.207044      0.003877     -0.028660
  H      -0.055731     -0.816686      0.685047
  H      -0.079634     -0.185915     -1.051838
  H      -0.063274      1.003427      0.362213
  F      -1.947254     -0.004788      0.033823
6
Coordinates from ORCA-job neb_MEP_ALL E -600.140610351611
  C      -0.130320     -0.000061      0.000469
  Cl      2.231386      0.003918     -0.028973
  H      -0.051132     -0.816080      0.684529
  H      -0.075497     -0.185760     -1.050952
  H      -0.058827      1.002653      0.361926
  F      -1.915610     -0.004670      0.033001
6
Coordinates from ORCA-job neb_MEP_ALL E -600.146230217974
  C      -0.176499     -0.000233      0.001465
  Cl      2.247666      0.003953     -0.029215
  H      -0.048295     -0.814716      0.683382
  H      -0.072907     -0.185484     -1.049388
  H      -0.056066      1.001064      0.361351
  F      -1.893900     -0.004584      0.032406
6
Coordinates from ORCA-job neb_MEP_ALL E -600.152687431056
  C      -0.222464     -0.000036      0.001546
  Cl      2.264587      0.003989     -0.029508
  H      -0.045832     -0.812854      0.681889
  H      -0.070801     -0.184949     -1.046135
  H      -0.053742      0.998346      0.360467
  F      -1.871748     -0.004497      0.031742
6
Coordinates from ORCA-job neb_MEP_ALL E -600.159824994118
  C      -0.271787     -0.000798      0.003188
  Cl      2.285499      0.004044     -0.029843
  H      -0.044309     -0.807819      0.677707
  H      -0.069559     -0.183922     -1.040441
  H      -0.052238      0.992843      0.358493
  F      -1.847606     -0.004349      0.030896
6
Coordinates from ORCA-job neb_MEP_ALL E -600.166183842532
  C      -0.321541     -0.000124      0.003053
  Cl      2.312059      0.004058     -0.029967
  H      -0.042965     -0.802646      0.673293
  H      -0.068891     -0.182592     -1.032755
  H      -0.051213      0.985634      0.355860
  F      -1.827449     -0.004330      0.030515
6
Coordinates from ORCA-job neb_MEP_ALL E -600.169738323365
  C      -0.358172     -0.000770      0.004156
  Cl      2.339751      0.004139     -0.030524
  H      -0.042390     -0.796126      0.667981
  H      -0.068187     -0.181254     -1.024938
  H      -0.050507      0.978228      0.353360
  F      -1.820495     -0.004217      0.029965
6
Coordinates from ORCA-job neb_MEP_ALL E -600.171914400795
  C      -0.384273     -0.000512      0.004481
  Cl      2.375880      0.004265     -0.031447
  H      -0.044272     -0.791442      0.664531
  H      -0.070707     -0.180282     -1.018305
  H      -0.052665      0.972067      0.351737
  F      -1.823963     -0.004095      0.029004
6
Coordinates from ORCA-job neb_MEP_ALL E -600.173420981036
  C      -0.402190     -0.000685      0.004906
  Cl      2.415096      0.004281     -0.031398
  H      -0.047799     -0.788306      0.661821
  H      -0.075719     -0.179638     -1.014728
  H      -0.056616      0.968419      0.350343
  F      -1.832771     -0.004070      0.029056
6
Coordinates from ORCA-job neb_MEP_ALL E -600.175190757937
  C      -0.423975     -0.000683      0.004987
  Cl      2.485540      0.004195     -0.030886
  H      -0.058012     -0.784260      0.658053
  H      -0.088493     -0.178737     -1.010279
  H      -0.067683      0.963667      0.348203
  F      -1.847376     -0.004182      0.029921
6
Coordinates from ORCA-job neb_MEP_ALL E -600.177097678149
  C      -0.461498     -0.000712      0.005281
  Cl      2.665334      0.004446     -0.032469
  H      -0.094221     -0.783784      0.657693
  H      -0.125571     -0.178651     -1.009386
  H      -0.104139      0.962969      0.348059
  F      -1.879904     -0.004269      0.030823
6
Coordinates from ORCA-job neb_MEP_ALL E -600.173324335993
  C      -0.447888     -0.000829      0.006832
  Cl      2.503661      0.004804     -0.037496
  H      -0.072610     -0.788957      0.665491
  H      -0.094244     -0.179979     -1.012164
  H      -0.079963      0.968498      0.353751
  F      -1.808956     -0.003538      0.023586
6
Coordinates from ORCA-job neb_MEP_ALL E -600.134564299856
  C       0.308438      0.001548     -0.010576
  Cl      2.140610      0.002551     -0.019709
  H      -0.030064     -0.791634      0.657690
  H      -0.035298     -0.179551     -1.029714
  H      -0.031425      0.975489      0.344389
  F      -2.352262     -0.008402      0.057921
6
Coordinates from ORCA-job neb_MEP_ALL E -600.135262262691
  C       0.284980      0.001391     -0.009276
  Cl      2.129858      0.002794     -0.021527
  H      -0.043377     -0.783763      0.652915
  H      -0.051690     -0.178175     -1.017955
  H      -0.045682      0.965455      0.342989
  F      -2.274090     -0.007702      0.052853
6
Coordinates from ORCA-job neb_MEP_ALL E -600.135282885436
  C       0.277315      0.001298     -0.008640
  Cl      2.126444      0.002966     -0.022660
  H      -0.048052     -0.783539      0.653604
  H      -0.058464     -0.178237     -1.016350
  H      -0.051107      0.964788      0.343826
  F      -2.246136     -0.007277      0.050220
6
Coordinates from ORCA-job neb_MEP_ALL E -600.135141078596
  C       0.259774      0.001069     -0.007165
  Cl      2.119223      0.003346     -0.025009
  H      -0.056524     -0.785510      0.656963
  H      -0.071565     -0.178851     -1.015989
  H      -0.061154      0.966346      0.346490
  F      -2.189753     -0.006400      0.044710
6
Coordinates from ORCA-job neb_MEP_ALL E -600.134382570994
  C       0.224387      0.000842     -0.005629
  Cl      2.113794      0.003633     -0.026854
  H      -0.064782     -0.791437      0.663356
  H      -0.084170     -0.180276     -1.020960
  H      -0.070809      0.972867      0.350573
  F      -2.118420     -0.005629      0.039514
6
Coordinates from ORCA-job neb_MEP_ALL E -600.133393453889
  C       0.189662      0.000730     -0.004879
  Cl      2.118573      0.003705     -0.027314
  H      -0.066989     -0.797488      0.668780
  H      -0.087853     -0.181638     -1.027930
  H      -0.073497      0.980055      0.353587
  F      -2.079896     -0.005365      0.037755
6
Coordinates from ORCA-job neb_MEP_ALL E -600.132376146244
  C       0.157076      0.000651     -0.004318
  Cl      2.127852      0.003740     -0.027580
  H      -0.067149     -0.802383      0.673025
  H      -0.088779     -0.182730     -1.033832
  H      -0.073917      0.985948      0.355879
  F      -2.055083     -0.005226      0.036827
6
Coordinates from ORCA-job neb_MEP_ALL E -600.131482959725
  C       0.126971      0.000590     -0.003849
  Cl      2.138258      0.003767     -0.027794
  H      -0.066469     -0.806155      0.676260
  H      -0.088613     -0.183566     -1.038417
  H      -0.073416      0.990495      0.357607
  F      -2.036731     -0.005131      0.036193
6
Coordinates from ORCA-job neb_MEP_ALL E -600.130817597961
  C       0.098653      0.000540     -0.003442
  Cl      2.148629      0.003789     -0.027968
  H      -0.065382     -0.809115      0.678780
  H      -0.087906     -0.184218     -1.042021
  H      -0.072463      0.994060      0.358939
  F      -2.021531     -0.005056      0.035712
6
Coordinates from ORCA-job neb_MEP_ALL E -600.130442448439
  C       0.071357      0.000497     -0.003081
  Cl      2.158786      0.003808     -0.028117
  H      -0.064056     -0.811509      0.680808
  H      -0.086887     -0.184737     -1.044921
  H      -0.071245      0.996935      0.359999
  F      -2.007955     -0.004994      0.035312
6
Coordinates from ORCA-job neb_MEP_ALL E -600.130395189977
  C       0.044381      0.000464     -0.002750
  Cl      2.168936      0.003824     -0.028252
  H      -0.062532     -0.813463      0.682455
  H      -0.085625     -0.185153     -1.047264
  H      -0.069811      0.999272      0.360851
  F      -1.995348     -0.004942      0.034959
6
Coordinates from ORCA-job neb_MEP_ALL E -600.130709641622
  C       0.018618      0.000436     -0.002445
  Cl      2.178620      0.003836     -0.028369
  H      -0.060932     -0.814944      0.683695
  H      -0.084247     -0.185463     -1.049018
  H      -0.068285      1.001034      0.361486
  F      -1.983775     -0.004899      0.034652
6
Coordinates from ORCA-job neb_MEP_ALL E -600.131382320200
  C      -0.006469      0.000397     -0.002118
  Cl      2.187980      0.003849     -0.028479
  H      -0.059302     -0.816072      0.684636
  H      -0.082824     -0.185699     -1.050364
  H      -0.066722      1.002383      0.361966
  F      -1.972662     -0.004858      0.034360
6
Coordinates from ORCA-job neb_MEP_ALL E -600.132468569036
  C      -0.031934      0.000342     -0.001731
  Cl      2.197383      0.003863     -0.028589
  H      -0.057603     -0.816910      0.685327
  H      -0.081326     -0.185877     -1.051394
  H      -0.065087      1.003398      0.362319
  F      -1.961433     -0.004816      0.034068
6
Coordinates from ORCA-job neb_MEP_ALL E -600.134187238064
  C      -0.060626      0.000276     -0.001277
  Cl      2.207856      0.003878     -0.028707
  H      -0.055657     -0.817534      0.685833
  H      -0.079599     -0.186008     -1.052167
  H      -0.063212      1.004157      0.362573
  F      -1.948762     -0.004769      0.033745
6
Coordinates from ORCA-job neb_MEP_ALL E -600.140515858020
  C      -0.129203      0.000101     -0.000108
  Cl      2.232179      0.003910     -0.028961
  H      -0.051016     -0.817236      0.685531
  H      -0.075437     -0.185934     -1.051832
  H      -0.058728      1.003817      0.362392
  F      -1.917795     -0.004658      0.032977
6
Coordinates from ORCA-job neb_MEP_ALL E -600.146241866131
  C      -0.176914     -0.000047      0.000877
  Cl      2.249069      0.003933     -0.029143
  H      -0.047942     -0.815764      0.684259
  H      -0.072659     -0.185626     -1.050142
  H      -0.055749      1.002082      0.361726
  F      -1.895806     -0.004578      0.032423
6
Coordinates from ORCA-job neb_MEP_ALL E -600.152713778691
  C      -0.223466     -0.000024      0.001250
  Cl      2.265779      0.003955     -0.029320
  H      -0.044981     -0.814046      0.682803
  H      -0.069995     -0.185171     -1.047540
  H      -0.052892      0.999791      0.360892
  F      -1.874445     -0.004506      0.031915
6
Coordinates from ORCA-job neb_MEP_ALL E -600.159878892116
  C      -0.274170     -0.000460      0.002813
  Cl      2.286505      0.004013     -0.029707
  H      -0.042636     -0.809251      0.678831
  H      -0.067842     -0.184191     -1.041952
  H      -0.050577      0.994261      0.358945
  F      -1.851279     -0.004372      0.031070
6
Coordinates from ORCA-job neb_MEP_ALL E -600.166212441286
  C      -0.322164     -0.000264      0.003514
  Cl      2.312444      0.004058     -0.030058
  H      -0.041799     -0.803592      0.674132
  H      -0.067587     -0.182871     -1.034269
  H      -0.049974      0.986947      0.356384
  F      -1.830921     -0.004278      0.030296
6
Coordinates from ORCA-job neb_MEP_ALL E -600.169775023267
  C      -0.358757     -0.000590      0.003692
  Cl      2.340361      0.004097     -0.030316
  H      -0.041968     -0.796825      0.668483
  H      -0.068251     -0.181283     -1.025253
  H      -0.050253      0.978798      0.353470
  F      -1.821131     -0.004196      0.029923
6
Coordinates from ORCA-job neb_MEP_ALL E -600.171973759093
  C      -0.385721     -0.000593      0.004847
  Cl      2.374894      0.004217     -0.031203
  H      -0.044260     -0.789974      0.663075
  H      -0.070236     -0.179940     -1.016826
  H      -0.052473      0.970403      0.350870
  F      -1.822205     -0.004114      0.029237
6
Coordinates from ORCA-job neb_MEP_ALL E -600.173454313259
  C      -0.402770     -0.000600      0.004751
  Cl      2.415626      0.004301     -0.031752
  H      -0.048787     -0.787092      0.660995
  H      -0.075841     -0.179361     -1.012778
  H      -0.057342      0.966785      0.349981
  F      -1.830886     -0.004034      0.028802
6
Coordinates from ORCA-job neb_MEP_ALL E -600.175215711390
  C      -0.424283     -0.000635      0.004945
  Cl      2.487680      0.004200     -0.031055
  H      -0.058729     -0.784028      0.657980
  H      -0.088839     -0.178708     -1.009845
  H      -0.068278      0.963316      0.348226
  F      -1.847550     -0.004145      0.029749
6
Coordinates from ORCA-job neb_MEP_ALL E -600.177101599708
  C      -0.461877     -0.000709      0.005334
  Cl      2.664794      0.004442     -0.032624
  H      -0.094044     -0.784325      0.658314
  H      -0.125286     -0.178804     -1.010001
  H      -0.103924      0.963608      0.348473
  F      -1.879664     -0.004213      0.030504
6
Coordinates from ORCA-job neb_MEP_ALL E -600.173324335993
  C      -0.447888     -0.000824      0.006824
  Cl      2.503662      0.004778     -0.037450
  H      -0.072630     -0.788956      0.665490
  H      -0.094227     -0.179978     -1.012166
  H      -0.079960      0.968499      0.353750
  F      -1.808957     -0.003519      0.023553
6
Coordinates from ORCA-job neb_MEP_ALL E -600.134564299856
  C       0.308438      0.001548     -0.010576
  Cl      2.140610      0.002551     -0.019709
  H      -0.030064     -0.791634      0.657690
  H      -0.035298     -0.179551     -1.029714
  H      -0.031425      0.975489      0.344389
  F      -2.352262     -0.008402      0.057921
6
Coordinates from ORCA-job neb_MEP_ALL E -600.135251955952
  C       0.284613      0.001393     -0.009292
  Cl      2.130653      0.002791     -0.021512
  H      -0.042956     -0.783499      0.652671
  H      -0.051233     -0.178111     -1.017643
  H      -0.045247      0.965140      0.342846
  F      -2.275830     -0.007714      0.052931
6
Coordinates from ORCA-job neb_MEP_ALL E -600.135292135774
  C       0.276753      0.001291     -0.008598
  Cl      2.126597      0.002981     -0.022754
  H      -0.048107     -0.783485      0.653617
  H      -0.058682     -0.178230     -1.016178
  H      -0.051219      0.964691      0.343862
  F      -2.245342     -0.007249      0.050051
6
Coordinates from ORCA-job neb_MEP_ALL E -600.135131630211
  C       0.259070      0.001054     -0.007072
  Cl      2.119115      0.003381     -0.025208
  H      -0.056494     -0.785469      0.657049
  H      -0.071901     -0.178854     -1.015720
  H      -0.061248      0.966228      0.346598
  F      -2.188541     -0.006340      0.044352
6
Coordinates from ORCA-job neb_MEP_ALL E -600.134364032291
  C       0.223200      0.000822     -0.005510
  Cl      2.113692      0.003674     -0.027089
  H      -0.064835     -0.791523      0.663574
  H      -0.084654     -0.180313     -1.020830
  H      -0.071005      0.972899      0.350766
  F      -2.116398     -0.005559      0.039089
6
Coordinates from ORCA-job neb_MEP_ALL E -600.133372748650
  C       0.188536      0.000712     -0.004770
  Cl      2.118694      0.003745     -0.027543
  H      -0.067012     -0.797581      0.668997
  H      -0.088258     -0.181678     -1.027840
  H      -0.073647      0.980107      0.353778
  F      -2.078312     -0.005304      0.037378
6
Coordinates from ORCA-job neb_MEP_ALL E -600.132357829108
  C       0.156194      0.000634     -0.004214
  Cl      2.128037      0.003780     -0.027810
  H      -0.067104     -0.802440      0.673207
  H      -0.089097     -0.182763     -1.033709
  H      -0.073993      0.985958      0.356050
  F      -2.054037     -0.005169      0.036476
6
Coordinates from ORCA-job neb_MEP_ALL E -600.131471059350
  C       0.126372      0.000574     -0.003753
  Cl      2.138367      0.003805     -0.028016
  H      -0.066372     -0.806162      0.676394
  H      -0.088857     -0.183590     -1.038248
  H      -0.073432      0.990450      0.357750
  F      -2.036077     -0.005078      0.035873
6
Coordinates from ORCA-job neb_MEP_ALL E -600.130810110629
  C       0.098370      0.000523     -0.003349
  Cl      2.148593      0.003827     -0.028183
  H      -0.065273     -0.809071      0.678866
  H      -0.088117     -0.184231     -1.041808
  H      -0.072459      0.993959      0.359056
  F      -2.021115     -0.005007      0.035417
6
Coordinates from ORCA-job neb_MEP_ALL E -600.130436717412
  C       0.071459      0.000476     -0.002981
  Cl      2.158581      0.003845     -0.028327
  H      -0.063966     -0.811411      0.680845
  H      -0.087101     -0.184742     -1.044666
  H      -0.071256      0.996780      0.360093
  F      -2.007718     -0.004948      0.035036
6
Coordinates from ORCA-job neb_MEP_ALL E -600.130393524502
  C       0.044848      0.000436     -0.002636
  Cl      2.168586      0.003860     -0.028460
  H      -0.062481     -0.813320      0.682452
  H      -0.085870     -0.185152     -1.046979
  H      -0.069858      0.999074      0.360927
  F      -1.995225     -0.004898      0.034695
6
Coordinates from ORCA-job neb_MEP_ALL E -600.130701065183
  C       0.019433      0.000400     -0.002311
  Cl      2.178159      0.003873     -0.028577
  H      -0.060928     -0.814777      0.683673
  H      -0.084536     -0.185461     -1.048735
  H      -0.068378      1.000820      0.361556
  F      -1.983749     -0.004856      0.034395
6
Coordinates from ORCA-job neb_MEP_ALL E -600.131367942199
  C      -0.005331      0.000357     -0.001977
  Cl      2.187425      0.003886     -0.028688
  H      -0.059346     -0.815900      0.684611
  H      -0.083159     -0.185699     -1.050093
  H      -0.066863      1.002173      0.362038
  F      -1.972725     -0.004816      0.034109
6
Coordinates from ORCA-job neb_MEP_ALL E -600.132438931952
  C      -0.030476      0.000302     -0.001589
  Cl      2.196739      0.003901     -0.028799
  H      -0.057699     -0.816748      0.685313
  H      -0.081708     -0.185883     -1.051147
  H      -0.065279      1.003203      0.362400
  F      -1.961577     -0.004775      0.033823
6
Coordinates from ORCA-job neb_MEP_ALL E -600.134146586595
  C      -0.059297      0.000255     -0.001234
  Cl      2.207290      0.003916     -0.028921
  H      -0.055788     -0.817444      0.685888
  H      -0.080010     -0.186017     -1.051917
  H      -0.063438      1.004017      0.362684
  F      -1.948757     -0.004729      0.033500
6
Coordinates from ORCA-job neb_MEP_ALL E -600.140364179057
  C      -0.126933      0.000064     -0.000016
  Cl      2.231474      0.003950     -0.029184
  H      -0.051324     -0.817331      0.685743
  H      -0.076001     -0.185995     -1.051887
  H      -0.059120      1.003932      0.362596
  F      -1.918096     -0.004620      0.032749
6
Coordinates from ORCA-job neb_MEP_ALL E -600.146237773794
  C      -0.176664      0.000012      0.000710
  Cl      2.249247      0.003972     -0.029361
  H      -0.048166     -0.816095      0.684672
  H      -0.073177     -0.185693     -1.050207
  H      -0.056074      1.002347      0.361990
  F      -1.895166     -0.004543      0.032198
6
Coordinates from ORCA-job neb_MEP_ALL E -600.152711521853
  C      -0.223542     -0.000205      0.001192
  Cl      2.266300      0.003994     -0.029504
  H      -0.045266     -0.814131      0.682994
  H      -0.070572     -0.185201     -1.047510
  H      -0.053254      1.000010      0.361106
  F      -1.873667     -0.004467      0.031722
6
Coordinates from ORCA-job neb_MEP_ALL E -600.159977002332
  C      -0.275021     -0.000221      0.002997
  Cl      2.287284      0.004037     -0.029812
  H      -0.042563     -0.810037      0.679523
  H      -0.068024     -0.184416     -1.043004
  H      -0.050620      0.995014      0.359284
  F      -1.851056     -0.004376      0.031012
6
Coordinates from ORCA-job neb_MEP_ALL E -600.166142138089
  C      -0.322679     -0.000518      0.003404
  Cl      2.312866      0.004097     -0.030221
  H      -0.041296     -0.804379      0.674886
  H      -0.067258     -0.183065     -1.035224
  H      -0.049480      0.988113      0.356907
  F      -1.832153     -0.004248      0.030249
6
Coordinates from ORCA-job neb_MEP_ALL E -600.169798034189
  C      -0.359484     -0.000461      0.004156
  Cl      2.341801      0.004131     -0.030464
  H      -0.041664     -0.797664      0.669219
  H      -0.068244     -0.181543     -1.026554
  H      -0.050074      0.979724      0.353862
  F      -1.822334     -0.004187      0.029780
6
Coordinates from ORCA-job neb_MEP_ALL E -600.171995528148
  C      -0.386623     -0.000569      0.004471
  Cl      2.375509      0.004228     -0.031170
  H      -0.043598     -0.790603      0.663542
  H      -0.070126     -0.179989     -1.017204
  H      -0.051977      0.971050      0.351035
  F      -1.823184     -0.004118      0.029326
6
Coordinates from ORCA-job neb_MEP_ALL E -600.173494347917
  C      -0.404219     -0.000652      0.005054
  Cl      2.416140      0.004346     -0.032023
  H      -0.048583     -0.786448      0.660488
  H      -0.075421     -0.179229     -1.011959
  H      -0.057067      0.966004      0.349739
  F      -1.830850     -0.004022      0.028701
6
Coordinates from ORCA-job neb_MEP_ALL E -600.175255694520
  C      -0.425031     -0.000642      0.005001
  Cl      2.490709      0.004256     -0.031379
  H      -0.059440     -0.783809      0.657911
  H      -0.089414     -0.178684     -1.009446
  H      -0.068947      0.963009      0.348258
  F      -1.847877     -0.004130      0.029654
6
Coordinates from ORCA-job neb_MEP_ALL E -600.177098367366
  C      -0.461686     -0.000719      0.005377
  Cl      2.666480      0.004484     -0.032878
  H      -0.094825     -0.784281      0.658400
  H      -0.126092     -0.178824     -1.009916
  H      -0.104713      0.963546      0.348587
  F      -1.879164     -0.004206      0.030430
6
Coordinates from ORCA-job neb_MEP_ALL E -600.173324335993
  C      -0.447888     -0.000828      0.006843
  Cl      2.503660      0.004799     -0.037558
  H      -0.072595     -0.788956      0.665493
  H      -0.094269     -0.179979     -1.012162
  H      -0.079953      0.968498      0.353753
  F      -1.808956     -0.003535      0.023630
6
Coordinates from ORCA-job neb_MEP_ALL E -600.134564299856
  C       0.308438      0.001548     -0.010576
  Cl      2.140610      0.002551     -0.019709
  H      -0.030064     -0.791634      0.657690
  H      -0.035298     -0.179551     -1.029714
  H      -0.031425      0.975489      0.344389
  F      -2.352262     -0.008402      0.057921
6
Coordinates from ORCA-job neb_MEP_ALL E -600.135262425431
  C       0.284167      0.001395     -0.009299
  Cl      2.132651      0.002783     -0.021461
  H      -0.041557     -0.782750      0.651960
  H      -0.049736     -0.177933     -1.016820
  H      -0.043809      0.964262      0.342427
  F      -2.281716     -0.007757      0.053192
6
Coordinates from ORCA-job neb_MEP_ALL E -600.135280300896
  C       0.275142      0.001248     -0.008337
  Cl      2.126682      0.003036     -0.023093
  H      -0.048276     -0.783337      0.653694
  H      -0.059475     -0.178231     -1.015725
  H      -0.051606      0.964432      0.344018
  F      -2.242467     -0.007148      0.049443
6
Coordinates from ORCA-job neb_MEP_ALL E -600.135123122519
  C       0.256836      0.000976     -0.006635
  Cl      2.118594      0.003508     -0.025932
  H      -0.056479     -0.785505      0.657514
  H      -0.073248     -0.178923     -1.015080
  H      -0.061695      0.966064      0.347084
  F      -2.184008     -0.006120      0.043049
6
Coordinates from ORCA-job neb_MEP_ALL E -600.134327630110
  C       0.219123      0.000732     -0.004991
  Cl      2.113341      0.003822     -0.027940
  H      -0.065042     -0.791895      0.664405
  H      -0.086433     -0.180477     -1.020542
  H      -0.071735      0.973129      0.351498
  F      -2.109253     -0.005310      0.037570
6
Coordinates from ORCA-job neb_MEP_ALL E -600.133334756848
  C       0.184449      0.000622     -0.004267
  Cl      2.119126      0.003887     -0.028374
  H      -0.067012     -0.797889      0.669745
  H      -0.089664     -0.181835     -1.027594
  H      -0.074112      0.980300      0.354457
  F      -2.072787     -0.005086      0.036033
6
Coordinates from ORCA-job neb_MEP_ALL E -600.132329804202
  C       0.152895      0.000543     -0.003716
  Cl      2.128617      0.003921     -0.028634
  H      -0.066837     -0.802539      0.673761
  H      -0.090158     -0.182880     -1.033273
  H      -0.074167      0.985921      0.356624
  F      -2.050350     -0.004966      0.035238
6
Coordinates from ORCA-job neb_MEP_ALL E -600.131445124207
  C       0.124180      0.000477     -0.003246
  Cl      2.138602      0.003944     -0.028815
  H      -0.065975     -0.806028      0.676729
  H      -0.089705     -0.183663     -1.037614
  H      -0.073449      0.990160      0.358205
  F      -2.033653     -0.004891      0.034741
6
Coordinates from ORCA-job neb_MEP_ALL E -600.130800770999
  C       0.097392      0.000411     -0.002816
  Cl      2.148328      0.003964     -0.028962
  H      -0.064876     -0.808728      0.679009
  H      -0.088899     -0.184269     -1.041013
  H      -0.072453      0.993455      0.359413
  F      -2.019492     -0.004834      0.034369
6
Coordinates from ORCA-job neb_MEP_ALL E -600.130441190224
  C       0.071794      0.000344     -0.002391
  Cl      2.157793      0.003981     -0.029095
  H      -0.063644     -0.810882      0.680820
  H      -0.087912     -0.184753     -1.043753
  H      -0.071311      0.996095      0.360369
  F      -2.006721     -0.004785      0.034050
6
Coordinates from ORCA-job neb_MEP_ALL E -600.130389775572
  C       0.046529      0.000272     -0.001952
  Cl      2.167289      0.003997     -0.029223
  H      -0.062282     -0.812638      0.682290
  H      -0.086768     -0.185150     -1.046019
  H      -0.070025      0.998262      0.361145
  F      -1.994742     -0.004743      0.033760
6
Coordinates from ORCA-job neb_MEP_ALL E -600.130694587435
  C       0.022345      0.000201     -0.001527
  Cl      2.176436      0.004011     -0.029342
  H      -0.060861     -0.813993      0.683420
  H      -0.085539     -0.185458     -1.047791
  H      -0.068669      0.999946      0.361743
  F      -1.983713     -0.004707      0.033497
6
Coordinates from ORCA-job neb_MEP_ALL E -600.131338747574
  C      -0.001318      0.000146     -0.001138
  Cl      2.185337      0.004025     -0.029456
  H      -0.059408     -0.815071      0.684317
  H      -0.084259     -0.185701     -1.049182
  H      -0.067271      1.001274      0.362212
  F      -1.973082     -0.004674      0.033247
6
Coordinates from ORCA-job neb_MEP_ALL E -600.132379517052
  C      -0.025525      0.000106     -0.000838
  Cl      2.194349      0.004040     -0.029570
  H      -0.057884     -0.815949      0.685050
  H      -0.082897     -0.185883     -1.050224
  H      -0.065800      1.002326      0.362588
  F      -1.962243     -0.004639      0.032995
6
Coordinates from ORCA-job neb_MEP_ALL E -600.134066651651
  C      -0.054832      0.000030     -0.000305
  Cl      2.205108      0.004059     -0.029713
  H      -0.056018     -0.816600      0.685586
  H      -0.081219     -0.186039     -1.051121
  H      -0.063993      1.003145      0.362873
  F      -1.949045     -0.004595      0.032680
6
Coordinates from ORCA-job neb_MEP_ALL E -600.140140412704
  C      -0.118873     -0.000033      0.000377
  Cl      2.228305      0.004099     -0.030000
  H      -0.052063     -0.816908      0.685832
  H      -0.077617     -0.186048     -1.051175
  H      -0.060150      1.003392      0.362950
  F      -1.919602     -0.004503      0.032016
6
Coordinates from ORCA-job neb_MEP_ALL E -600.146242403034
  C      -0.176051     -0.000151      0.001029
  Cl      2.249040      0.004131     -0.030224
  H      -0.048658     -0.815917      0.684975
  H      -0.074563     -0.185770     -1.049659
  H      -0.056855      1.002125      0.362462
  F      -1.892913     -0.004417      0.031415
6
Coordinates from ORCA-job neb_MEP_ALL E -600.152773354850
  C      -0.223769     -0.000342      0.002638
  Cl      2.267168      0.004156     -0.030403
  H      -0.046229     -0.813144      0.682562
  H      -0.072330     -0.185257     -1.046899
  H      -0.054486      0.998930      0.361211
  F      -1.870354     -0.004343      0.030891
6
Coordinates from ORCA-job neb_MEP_ALL E -600.160068160125
  C      -0.276319     -0.000169      0.002246
  Cl      2.289051      0.004171     -0.030491
  H      -0.043285     -0.810782      0.680518
  H      -0.069827     -0.184540     -1.042846
  H      -0.051694      0.995625      0.359966
  F      -1.847926     -0.004305      0.030608
6
Coordinates from ORCA-job neb_MEP_ALL E -600.166127923141
  C      -0.323735     -0.000536      0.003380
  Cl      2.314287      0.004230     -0.030827
  H      -0.041145     -0.805038      0.675704
  H      -0.067816     -0.183307     -1.035864
  H      -0.049544      0.988863      0.357530
  F      -1.832047     -0.004212      0.030078
6
Coordinates from ORCA-job neb_MEP_ALL E -600.169837078293
  C      -0.361239     -0.000578      0.004568
  Cl      2.345918      0.004270     -0.031081
  H      -0.041506     -0.798740      0.670344
  H      -0.068812     -0.181912     -1.028090
  H      -0.050119      0.981111      0.354647
  F      -1.824242     -0.004151      0.029613
6
Coordinates from ORCA-job neb_MEP_ALL E -600.172024160260
  C      -0.388157     -0.000684      0.005039
  Cl      2.379232      0.004320     -0.031417
  H      -0.042614     -0.792154      0.664771
  H      -0.070407     -0.180382     -1.019467
  H      -0.051373      0.973013      0.351677
  F      -1.826681     -0.004112      0.029397
6
Coordinates from ORCA-job neb_MEP_ALL E -600.173523319495
  C      -0.407980     -0.000686      0.005211
  Cl      2.419183      0.004509     -0.032906
  H      -0.047424     -0.785841      0.660107
  H      -0.074304     -0.179029     -1.010519
  H      -0.055921      0.965055      0.349559
  F      -1.833553     -0.004007      0.028548
6
Coordinates from ORCA-job neb_MEP_ALL E -600.175314633477
  C      -0.427993     -0.000721      0.005322
  Cl      2.501464      0.004467     -0.032567
  H      -0.061497     -0.783346      0.657892
  H      -0.091127     -0.178675     -1.008551
  H      -0.070888      0.962369      0.348484
  F      -1.849959     -0.004094      0.029419
6
Coordinates from ORCA-job neb_MEP_ALL E -600.177103302535
  C      -0.460594     -0.000764      0.005532
  Cl      2.672673      0.004648     -0.033819
  H      -0.097610     -0.784348      0.658850
  H      -0.129089     -0.178934     -1.009906
  H      -0.107570      0.963602      0.349046
  F      -1.877811     -0.004204      0.030297
6
Coordinates from ORCA-job neb_MEP_ALL E -600.173324335993
  C      -0.447886     -0.000844      0.006927
  Cl      2.503653      0.004892     -0.038027
  H      -0.072441     -0.788960      0.665506
  H      -0.094452     -0.179982     -1.012144
  H      -0.079922      0.968495      0.353769
  F      -1.808951     -0.003602      0.023970
6
Coordinates from ORCA-job neb_MEP_ALL E -600.134564299856
  C       0.308438      0.001548     -0.010576
  Cl      2.140610      0.002551     -0.019709
  H      -0.030064     -0.791634      0.657690
  H      -0.035298     -0.179551     -1.029714
  H      -0.031425      0.975489      0.344389
  F      -2.352262     -0.008402      0.057921
6
Coordinates from ORCA-job neb_MEP_ALL E -600.135240963680
  C       0.285144      0.001397     -0.009319
  Cl      2.133427      0.002775     -0.021418
  H      -0.040588     -0.782536      0.651719
  H      -0.048680     -0.177880     -1.016659
  H      -0.042803      0.964037      0.342271
  F      -2.286500     -0.007793      0.053405
6
Coordinates from ORCA-job neb_MEP_ALL E -600.135286176699
  C       0.274242      0.001213     -0.008125
  Cl      2.126213      0.003088     -0.023413
  H      -0.048443     -0.783419      0.653954
  H      -0.060216     -0.178278     -1.015549
  H      -0.051974      0.964449      0.344262
  F      -2.239822     -0.007053      0.048872
6
Coordinates from ORCA-job neb_MEP_ALL E -600.135103864751
  C       0.254734      0.000908     -0.006233
  Cl      2.117933      0.003630     -0.026635
  H      -0.056544     -0.785939      0.658298
  H      -0.074605     -0.179075     -1.014946
  H      -0.062198      0.966384      0.347727
  F      -2.179319     -0.005908      0.041789
6
Coordinates from ORCA-job neb_MEP_ALL E -600.134205824711
  C       0.215317      0.000651     -0.004530
  Cl      2.113262      0.003958     -0.028733
  H      -0.065130     -0.792551      0.665429
  H      -0.087921     -0.180696     -1.020674
  H      -0.072290      0.973724      0.352304
  F      -2.103236     -0.005086      0.036203
6
Coordinates from ORCA-job neb_MEP_ALL E -600.133191853945
  C       0.180580      0.000545     -0.003829
  Cl      2.119882      0.004018     -0.029141
  H      -0.066812     -0.798430      0.670639
  H      -0.090695     -0.182033     -1.027696
  H      -0.074322      0.980791      0.355184
  F      -2.068632     -0.004892      0.034844
6
Coordinates from ORCA-job neb_MEP_ALL E -600.132218519291
  C       0.149852      0.000467     -0.003284
  Cl      2.129481      0.004050     -0.029387
  H      -0.066435     -0.802844      0.674437
  H      -0.090894     -0.183032     -1.033157
  H      -0.074145      0.986149      0.357231
  F      -2.047858     -0.004789      0.034160
6
Coordinates from ORCA-job neb_MEP_ALL E -600.131393375506
  C       0.122202      0.000397     -0.002819
  Cl      2.139193      0.004071     -0.029548
  H      -0.065525     -0.806123      0.677211
  H      -0.090314     -0.183775     -1.037308
  H      -0.073352      0.990158      0.358707
  F      -2.032203     -0.004728      0.033757
6
Coordinates from ORCA-job neb_MEP_ALL E -600.130785810254
  C       0.096542      0.000326     -0.002384
  Cl      2.148545      0.004088     -0.029678
  H      -0.064458     -0.808659      0.679340
  H      -0.089480     -0.184351     -1.040566
  H      -0.072369      0.993277      0.359834
  F      -2.018779     -0.004682      0.033455
6
Coordinates from ORCA-job neb_MEP_ALL E -600.130444769359
  C       0.072075      0.000252     -0.001944
  Cl      2.157619      0.004104     -0.029799
  H      -0.063291     -0.810686      0.681034
  H      -0.088509     -0.184814     -1.043215
  H      -0.071274      0.995787      0.360730
  F      -2.006619     -0.004642      0.033194
6
Coordinates from ORCA-job neb_MEP_ALL E -600.130384452753
  C       0.048016      0.000167     -0.001482
  Cl      2.166675      0.004119     -0.029918
  H      -0.062019     -0.812344      0.682412
  H      -0.087412     -0.185197     -1.045427
  H      -0.070063      0.997863      0.361462
  F      -1.995199     -0.004609      0.032954
6
Coordinates from ORCA-job neb_MEP_ALL E -600.130636696413
  C       0.024848      0.000087     -0.001034
  Cl      2.175460      0.004133     -0.030032
  H      -0.060678     -0.813637      0.683483
  H      -0.086225     -0.185499     -1.047183
  H      -0.068775      0.999496      0.362031
  F      -1.984629     -0.004580      0.032735
6
Coordinates from ORCA-job neb_MEP_ALL E -600.131209870486
  C       0.002089      0.000021     -0.000640
  Cl      2.184041      0.004147     -0.030142
  H      -0.059303     -0.814686      0.684350
  H      -0.084984     -0.185740     -1.048582
  H      -0.067442      1.000811      0.362488
  F      -1.974402     -0.004553      0.032525
6
Coordinates from ORCA-job neb_MEP_ALL E -600.132146717438
  C      -0.021579     -0.000031     -0.000243
  Cl      2.192873      0.004162     -0.030256
  H      -0.057831     -0.815531      0.685046
  H      -0.083643     -0.185933     -1.049702
  H      -0.066009      1.001858      0.362849
  F      -1.963811     -0.004525      0.032306
6
Coordinates from ORCA-job neb_MEP_ALL E -600.133788893236
  C      -0.051251     -0.000052     -0.000041
  Cl      2.203773      0.004181     -0.030393
  H      -0.055958     -0.816292      0.685683
  H      -0.081917     -0.186063     -1.050436
  H      -0.064184      1.002713      0.363158
  F      -1.950463     -0.004487      0.032029
6
Coordinates from ORCA-job neb_MEP_ALL E -600.139332542558
  C      -0.111263     -0.000209      0.001047
  Cl      2.225541      0.004222     -0.030681
  H      -0.052317     -0.816436      0.685770
  H      -0.078527     -0.186114     -1.050791
  H      -0.060618      1.002944      0.363202
  F      -1.922817     -0.004408      0.031452
6
Coordinates from ORCA-job neb_MEP_ALL E -600.146268627255
  C      -0.175994     -0.000158      0.001431
  Cl      2.249046      0.004261     -0.030957
  H      -0.048567     -0.815570      0.685026
  H      -0.075114     -0.185804     -1.049029
  H      -0.056980      1.001596      0.362702
  F      -1.892391     -0.004324      0.030827
6
Coordinates from ORCA-job neb_MEP_ALL E -600.152991705658
  C      -0.224658     -0.000717      0.002436
  Cl      2.267775      0.004299     -0.031152
  H      -0.046293     -0.812588      0.682498
  H      -0.073074     -0.185161     -1.045581
  H      -0.054734      0.998400      0.361492
  F      -1.869016     -0.004234      0.030307
6
Coordinates from ORCA-job neb_MEP_ALL E -600.160365140535
  C      -0.277563      0.000047      0.003065
  Cl      2.290297      0.004301     -0.031212
  H      -0.043710     -0.809924      0.680084
  H      -0.070819     -0.184506     -1.041860
  H      -0.052357      0.994320      0.359876
  F      -1.845849     -0.004238      0.030047
6
Coordinates from ORCA-job neb_MEP_ALL E -600.166230459443
  C      -0.324589     -0.001013      0.003706
  Cl      2.315457      0.004359     -0.031448
  H      -0.041612     -0.804238      0.675299
  H      -0.068753     -0.183236     -1.034954
  H      -0.050092      0.988261      0.357623
  F      -1.830411     -0.004134      0.029774
6
Coordinates from ORCA-job neb_MEP_ALL E -600.169981853232
  C      -0.362619     -0.000276      0.005022
  Cl      2.348528      0.004395     -0.031668
  H      -0.041780     -0.798298      0.670160
  H      -0.069438     -0.181949     -1.027635
  H      -0.050564      0.980284      0.354626
  F      -1.824126     -0.004156      0.029495
6
Coordinates from ORCA-job neb_MEP_ALL E -600.172120365274
  C      -0.388671     -0.000719      0.004113
  Cl      2.382780      0.004417     -0.031769
  H      -0.042836     -0.792790      0.665417
  H      -0.071536     -0.180420     -1.019401
  H      -0.051840      0.973632      0.352045
  F      -1.827897     -0.004121      0.029595
6
Coordinates from ORCA-job neb_MEP_ALL E -600.173643440996
  C      -0.410137     -0.000852      0.006168
  Cl      2.423686      0.004649     -0.033643
  H      -0.047375     -0.785462      0.659891
  H      -0.074130     -0.179054     -1.010410
  H      -0.055821      0.964712      0.349566
  F      -1.836223     -0.003992      0.028429
6
Coordinates from ORCA-job neb_MEP_ALL E -600.175509382133
  C      -0.430712     -0.000769      0.005525
  Cl      2.511480      0.004660     -0.033667
  H      -0.063260     -0.783164      0.658075
  H      -0.092512     -0.178699     -1.007927
  H      -0.072529      0.962037      0.348779
  F      -1.852468     -0.004065      0.029215
6
Coordinates from ORCA-job neb_MEP_ALL E -600.177121920466
  C      -0.459935     -0.000806      0.005697
  Cl      2.677097      0.004800     -0.034719
  H      -0.099411     -0.784800      0.659598
  H      -0.131000     -0.179117     -1.010339
  H      -0.109414      0.964119      0.349645
  F      -1.877337     -0.004196      0.030118
6
Coordinates from ORCA-job neb_MEP_ALL E -600.173324335993
  C      -0.447885     -0.000859      0.007002
  Cl      2.503646      0.004975     -0.038446
  H      -0.072303     -0.788962      0.665518
  H      -0.094616     -0.179984     -1.012128
  H      -0.079895      0.968492      0.353782
  F      -1.808947     -0.003662      0.024272
6
Coordinates from ORCA-job neb_MEP_ALL E -600.134564299856
  C       0.308438      0.001548     -0.010576
  Cl      2.140610      0.002551     -0.019709
  H      -0.030064     -0.791634      0.657690
  H      -0.035298     -0.179551     -1.029714
  H      -0.031425      0.975489      0.344389
  F      -2.352262     -0.008402      0.057921
6
Coordinates from ORCA-job neb_MEP_ALL E -600.135225952805
  C       0.290231      0.001418     -0.009457
  Cl      2.134883      0.002751     -0.021271
  H      -0.037713     -0.782459      0.651466
  H      -0.045479     -0.177850     -1.016890
  H      -0.039789      0.964052      0.342047
  F      -2.302134     -0.007912      0.054106
6
Coordinates from ORCA-job neb_MEP_ALL E -600.135284432646
  C       0.271792      0.001111     -0.007496
  Cl      2.124016      0.003273     -0.024549
  H      -0.049040     -0.784013      0.655130
  H      -0.062795     -0.178492     -1.015200
  H      -0.053266      0.964839      0.345246
  F      -2.230708     -0.006717      0.046869
6
Coordinates from ORCA-job neb_MEP_ALL E -600.135072271141
  C       0.246851      0.000681     -0.004889
  Cl      2.115410      0.004069     -0.029165
  H      -0.056906     -0.787996      0.661537
  H      -0.079524     -0.179717     -1.015002
  H      -0.064101      0.968115      0.350249
  F      -2.161731     -0.005152      0.037271
6
Coordinates from ORCA-job neb_MEP_ALL E -600.134089131706
  C       0.201894      0.000400     -0.003046
  Cl      2.113560      0.004431     -0.031499
  H      -0.065159     -0.795313      0.669378
  H      -0.092660     -0.181546     -1.021682
  H      -0.073889      0.976354      0.355290
  F      -2.083745     -0.004327      0.031560
6
Coordinates from ORCA-job neb_MEP_ALL E -600.133061562790
  C       0.166989      0.000310     -0.002434
  Cl      2.123274      0.004467     -0.031804
  H      -0.065730     -0.800772      0.674110
  H      -0.093699     -0.182809     -1.028598
  H      -0.074603      0.983044      0.357872
  F      -2.056231     -0.004240      0.030853
6
Coordinates from ORCA-job neb_MEP_ALL E -600.132120685572
  C       0.139352      0.000240     -0.001953
  Cl      2.133243      0.004489     -0.031980
  H      -0.064786     -0.804364      0.677144
  H      -0.092967     -0.183643     -1.033275
  H      -0.073740      0.987475      0.359496
  F      -2.041102     -0.004198      0.030569
6
Coordinates from ORCA-job neb_MEP_ALL E -600.131340137884
  C       0.115477      0.000174     -0.001555
  Cl      2.142114      0.004500     -0.032062
  H      -0.063825     -0.806962      0.679286
  H      -0.092051     -0.184246     -1.036766
  H      -0.072799      0.990718      0.360623
  F      -2.028916     -0.004184      0.030473
6
Coordinates from ORCA-job neb_MEP_ALL E -600.130769910796
  C       0.093655      0.000106     -0.001171
  Cl      2.150311      0.004510     -0.032131
  H      -0.062899     -0.808992      0.680948
  H      -0.091144     -0.184718     -1.039541
  H      -0.071883      0.993268      0.361491
  F      -2.018040     -0.004174      0.030404
6
Coordinates from ORCA-job neb_MEP_ALL E -600.130441532116
  C       0.072996      0.000033     -0.000774
  Cl      2.158133      0.004518     -0.032204
  H      -0.061945     -0.810656      0.682304
  H      -0.090207     -0.185110     -1.041863
  H      -0.070941      0.995380      0.362201
  F      -2.008037     -0.004165      0.030336
6
Coordinates from ORCA-job neb_MEP_ALL E -600.130378896411
  C       0.052990     -0.000045     -0.000370
  Cl      2.165739      0.004529     -0.032281
  H      -0.060956     -0.812061      0.683441
  H      -0.089225     -0.185442     -1.043854
  H      -0.069953      0.997179      0.362795
  F      -1.998595     -0.004159      0.030268
6
Coordinates from ORCA-job neb_MEP_ALL E -600.130599688446
  C       0.033156     -0.000118      0.000031
  Cl      2.173327      0.004539     -0.032360
  H      -0.059862     -0.813209      0.684364
  H      -0.088137     -0.185717     -1.045515
  H      -0.068859      0.998659      0.363278
  F      -1.989625     -0.004154      0.030201
6
Coordinates from ORCA-job neb_MEP_ALL E -600.131104876014
  C       0.013234     -0.000182      0.000392
  Cl      2.180909      0.004549     -0.032441
  H      -0.058708     -0.814192      0.685152
  H      -0.086980     -0.185947     -1.046919
  H      -0.067701      0.999922      0.363685
  F      -1.980753     -0.004149      0.030131
6
Coordinates from ORCA-job neb_MEP_ALL E -600.131970777141
  C      -0.009033     -0.000240      0.000756
  Cl      2.189291      0.004562     -0.032536
  H      -0.057359     -0.815066      0.685845
  H      -0.085639     -0.186148     -1.048140
  H      -0.066349      1.001032      0.364038
  F      -1.970912     -0.004141      0.030037
6
Coordinates from ORCA-job neb_MEP_ALL E -600.133560982896
  C      -0.039652     -0.000297      0.001231
  Cl      2.200604      0.004581     -0.032669
  H      -0.055435     -0.815791      0.686412
  H      -0.083756     -0.186312     -1.049165
  H      -0.064432      1.001944      0.364316
  F      -1.957329     -0.004125      0.029875
6
Coordinates from ORCA-job neb_MEP_ALL E -600.138548206322
  C      -0.084199     -0.000351      0.001592
  Cl      2.216738      0.004606     -0.032843
  H      -0.052720     -0.816158      0.686664
  H      -0.080970     -0.186354     -1.049510
  H      -0.061691      1.002361      0.364400
  F      -1.937157     -0.004105      0.029697
6
Coordinates from ORCA-job neb_MEP_ALL E -600.146283359038
  C      -0.176325     -0.000445      0.002905
  Cl      2.250054      0.004672     -0.033291
  H      -0.047554     -0.814529      0.685222
  H      -0.076000     -0.185955     -1.047375
  H      -0.056582      1.000270      0.363562
  F      -1.893593     -0.004012      0.028977
6
Coordinates from ORCA-job neb_MEP_ALL E -600.153180251427
  C      -0.228925     -0.000644      0.003645
  Cl      2.270421      0.004716     -0.033576
  H      -0.045327     -0.811526      0.682693
  H      -0.073902     -0.185259     -1.043493
  H      -0.054379      0.996658      0.362238
  F      -1.867889     -0.003945      0.028493
6
Coordinates from ORCA-job neb_MEP_ALL E -600.160650053816
  C      -0.282849     -0.000612      0.004068
  Cl      2.294541      0.004732     -0.033654
  H      -0.043760     -0.806991      0.678732
  H      -0.072553     -0.184141     -1.037452
  H      -0.052887      0.990936      0.359992
  F      -1.842492     -0.003924      0.028313
6
Coordinates from ORCA-job neb_MEP_ALL E -600.166414364931
  C      -0.327854     -0.000856      0.004741
  Cl      2.319451      0.004755     -0.033636
  H      -0.042541     -0.801703      0.674050
  H      -0.071193     -0.182966     -1.031163
  H      -0.051563      0.984708      0.357477
  F      -1.826299     -0.003938      0.028531
6
Coordinates from ORCA-job neb_MEP_ALL E -600.170151604827
  C      -0.367638     -0.000559      0.005349
  Cl      2.356271      0.004791     -0.033647
  H      -0.042787     -0.795456      0.668541
  H      -0.071531     -0.181576     -1.023601
  H      -0.051829      0.976826      0.354355
  F      -1.822485     -0.004027      0.029003
6
Coordinates from ORCA-job neb_MEP_ALL E -600.172226545250
  C      -0.390918     -0.000561      0.004276
  Cl      2.394393      0.004733     -0.033108
  H      -0.044948     -0.792129      0.665162
  H      -0.075144     -0.180440     -1.018426
  H      -0.054396      0.972550      0.352101
  F      -1.828988     -0.004152      0.029995
6
Coordinates from ORCA-job neb_MEP_ALL E -600.173777827255
  C      -0.416052     -0.001058      0.006858
  Cl      2.441360      0.005080     -0.036039
  H      -0.048959     -0.784758      0.659809
  H      -0.075611     -0.178980     -1.008775
  H      -0.057321      0.963674      0.349831
  F      -1.843417     -0.003958      0.028316
6
Coordinates from ORCA-job neb_MEP_ALL E -600.175677033015
  C      -0.439824     -0.000934      0.006418
  Cl      2.546419      0.005291     -0.037471
  H      -0.069687     -0.782624      0.658782
  H      -0.097250     -0.178820     -1.005997
  H      -0.078399      0.961021      0.349842
  F      -1.861260     -0.003935      0.028426
6
Coordinates from ORCA-job neb_MEP_ALL E -600.177122635834
  C      -0.458729     -0.000940      0.006322
  Cl      2.689336      0.005288     -0.037877
  H      -0.104004     -0.786690      0.662495
  H      -0.135597     -0.179812     -1.012118
  H      -0.114025      0.966277      0.351892
  F      -1.876980     -0.004123      0.029287
6
Coordinates from ORCA-job neb_MEP_ALL E -600.173324335993
  C      -0.447881     -0.000902      0.007242
  Cl      2.503626      0.005213     -0.039789
  H      -0.071871     -0.788970      0.665556
  H      -0.095142     -0.179992     -1.012078
  H      -0.079798      0.968484      0.353826
  F      -1.808934     -0.003834      0.025243
6
Coordinates from ORCA-job neb_MEP_ALL E -600.134564299856
  C       0.308438      0.001548     -0.010576
  Cl      2.140610      0.002551     -0.019709
  H      -0.030064     -0.791634      0.657690
  H      -0.035298     -0.179551     -1.029714
  H      -0.031425      0.975489      0.344389
  F      -2.352262     -0.008402      0.057921
6
Coordinates from ORCA-job neb_MEP_ALL E -600.135177536837
  C       0.294827      0.001451     -0.009648
  Cl      2.136002      0.002728     -0.021134
  H      -0.035629     -0.782794      0.651595
  H      -0.043038     -0.177909     -1.017559
  H      -0.037555      0.964542      0.342037
  F      -2.314606     -0.008018      0.054710
6
Coordinates from ORCA-job neb_MEP_ALL E -600.135276134399
  C       0.269954      0.001032     -0.007006
  Cl      2.122379      0.003455     -0.025650
  H      -0.049623     -0.784594      0.656274
  H      -0.065243     -0.178689     -1.014786
  H      -0.054505      0.965193      0.346192
  F      -2.222962     -0.006396      0.044976
6
Coordinates from ORCA-job neb_MEP_ALL E -600.134927405627
  C       0.237465      0.000464     -0.003597
  Cl      2.113234      0.004508     -0.031746
  H      -0.057927     -0.790110      0.664876
  H      -0.085054     -0.180370     -1.015038
  H      -0.066643      0.969898      0.352848
  F      -2.141076     -0.004391      0.032656
6
Coordinates from ORCA-job neb_MEP_ALL E -600.133661594273
  C       0.190093      0.000202     -0.001811
  Cl      2.115280      0.004848     -0.033987
  H      -0.064595     -0.797687      0.672804
  H      -0.095952     -0.182284     -1.022553
  H      -0.074613      0.978613      0.357889
  F      -2.070214     -0.003691      0.027657
6
Coordinates from ORCA-job neb_MEP_ALL E -600.132622185391
  C       0.154771      0.000126     -0.001286
  Cl      2.127671      0.004858     -0.034151
  H      -0.063999     -0.802916      0.677196
  H      -0.095226     -0.183510     -1.029580
  H      -0.073967      0.985144      0.360234
  F      -2.049251     -0.003703      0.027587
6
Coordinates from ORCA-job neb_MEP_ALL E -600.131805435775
  C       0.129886      0.000079     -0.000961
  Cl      2.137554      0.004862     -0.034204
  H      -0.062893     -0.805938      0.679661
  H      -0.093930     -0.184214     -1.033715
  H      -0.072808      0.988932      0.361517
  F      -2.037810     -0.003722      0.027702
6
Coordinates from ORCA-job neb_MEP_ALL E -600.131171577578
  C       0.109518      0.000037     -0.000688
  Cl      2.145488      0.004863     -0.034210
  H      -0.062106     -0.808032      0.681333
  H      -0.092939     -0.184700     -1.036650
  H      -0.071954      0.991577      0.362369
  F      -2.028007     -0.003745      0.027846
6
Coordinates from ORCA-job neb_MEP_ALL E -600.130721085990
  C       0.091131     -0.000005     -0.000432
  Cl      2.152597      0.004864     -0.034229
  H      -0.061393     -0.809709      0.682671
  H      -0.092068     -0.185085     -1.039000
  H      -0.071192      0.993698      0.363046
  F      -2.019075     -0.003762      0.027943
6
Coordinates from ORCA-job neb_MEP_ALL E -600.130452733518
  C       0.073755     -0.000028     -0.000209
  Cl      2.159287      0.004866     -0.034260
  H      -0.060665     -0.811131      0.683804
  H      -0.091197     -0.185406     -1.040961
  H      -0.070415      0.995475      0.363613
  F      -2.010764     -0.003776      0.028012
6
Coordinates from ORCA-job neb_MEP_ALL E -600.130370618364
  C       0.057096     -0.000073      0.000062
  Cl      2.165665      0.004872     -0.034303
  H      -0.059918     -0.812352      0.684771
  H      -0.090322     -0.185687     -1.042692
  H      -0.069623      0.997028      0.364100
  F      -2.002899     -0.003788      0.028061
6
Coordinates from ORCA-job neb_MEP_ALL E -600.130483247388
  C       0.040063     -0.000114      0.000300
  Cl      2.172214      0.004878     -0.034352
  H      -0.059039     -0.813410      0.685607
  H      -0.089324     -0.185926     -1.044171
  H      -0.068701      0.998370      0.364519
  F      -1.995213     -0.003798      0.028098
6
Coordinates from ORCA-job neb_MEP_ALL E -600.130820839644
  C       0.022113     -0.000159      0.000553
  Cl      2.179085      0.004886     -0.034412
  H      -0.058057     -0.814368      0.686359
  H      -0.088229     -0.186141     -1.045514
  H      -0.067677      0.999590      0.364894
  F      -1.987234     -0.003808      0.028120
6
Coordinates from ORCA-job neb_MEP_ALL E -600.131466897668
  C       0.000157     -0.000213      0.001184
  Cl      2.187415      0.004897     -0.034502
  H      -0.056769     -0.815213      0.686999
  H      -0.086859     -0.186378     -1.047010
  H      -0.066350      1.000722      0.365217
  F      -1.977594     -0.003815      0.028111
6
Coordinates from ORCA-job neb_MEP_ALL E -600.132861205360
  C      -0.029092     -0.000129      0.000359
  Cl      2.198305      0.004908     -0.034578
  H      -0.054970     -0.816424      0.687999
  H      -0.084939     -0.186454     -1.047490
  H      -0.064513      1.001916      0.365626
  F      -1.964790     -0.003817      0.028084
6
Coordinates from ORCA-job neb_MEP_ALL E -600.135985408635
  C      -0.057831     -0.000561      0.003396
  Cl      2.208886      0.004934     -0.034756
  H      -0.053254     -0.815921      0.687397
  H      -0.083065     -0.186750     -1.049541
  H      -0.062719      1.002114      0.365481
  F      -1.952016     -0.003816      0.028024
6
Coordinates from ORCA-job neb_MEP_ALL E -600.146316022747
  C      -0.175645     -0.000754      0.003876
  Cl      2.251018      0.005022     -0.035327
  H      -0.046562     -0.814074      0.685741
  H      -0.076097     -0.186137     -1.046348
  H      -0.055926      0.999709      0.364475
  F      -1.896787     -0.003766      0.027584
6
Coordinates from ORCA-job neb_MEP_ALL E -600.153817719911
  C      -0.233234     -0.000962      0.002838
  Cl      2.273139      0.005082     -0.035637
  H      -0.043929     -0.811780      0.683895
  H      -0.073694     -0.185329     -1.041754
  H      -0.053325      0.996696      0.363455
  F      -1.868956     -0.003707      0.027203
6
Coordinates from ORCA-job neb_MEP_ALL E -600.161542184775
  C      -0.288725     -0.000532      0.005224
  Cl      2.298564      0.005106     -0.035854
  H      -0.042806     -0.805962      0.678783
  H      -0.072438     -0.184202     -1.035573
  H      -0.052245      0.989298      0.360559
  F      -1.842349     -0.003709      0.026861
6
Coordinates from ORCA-job neb_MEP_ALL E -600.166987060101
  C      -0.330634     -0.001176      0.005504
  Cl      2.322635      0.005113     -0.035731
  H      -0.042192     -0.800394      0.673838
  H      -0.071634     -0.182894     -1.028894
  H      -0.051445      0.983085      0.357958
  F      -1.826730     -0.003733      0.027325
6
Coordinates from ORCA-job neb_MEP_ALL E -600.170727951464
  C      -0.372206     -0.000776      0.006243
  Cl      2.361844      0.005175     -0.035822
  H      -0.042864     -0.793084      0.667389
  H      -0.071874     -0.181334     -1.020198
  H      -0.051982      0.973873      0.354350
  F      -1.822918     -0.003855      0.028038
6
Coordinates from ORCA-job neb_MEP_ALL E -600.172635488776
  C      -0.394832     -0.001352      0.004602
  Cl      2.404164      0.005091     -0.034828
  H      -0.046782     -0.789770      0.663877
  H      -0.077616     -0.180173     -1.015415
  H      -0.056233      0.970217      0.352098
  F      -1.828702     -0.004012      0.029666
6
Coordinates from ORCA-job neb_MEP_ALL E -600.174243657695
  C      -0.419696     -0.000863      0.007431
  Cl      2.460686      0.005397     -0.037545
  H      -0.052879     -0.784672      0.659985
  H      -0.079975     -0.179105     -1.008604
  H      -0.061405      0.963256      0.350046
  F      -1.846731     -0.004013      0.028686
6
Coordinates from ORCA-job neb_MEP_ALL E -600.176172388950
  C      -0.446781     -0.001032      0.007007
  Cl      2.577426      0.005853     -0.040837
  H      -0.076393     -0.782557      0.659704
  H      -0.102110     -0.178919     -1.004415
  H      -0.084507      0.960486      0.350843
  F      -1.867636     -0.003831      0.027698
6
Coordinates from ORCA-job neb_MEP_ALL E -600.177112992995
  C      -0.460596     -0.001033      0.006955
  Cl      2.695425      0.005728     -0.040760
  H      -0.105049     -0.787166      0.663921
  H      -0.135604     -0.180098     -1.011872
  H      -0.114777      0.966649      0.353210
  F      -1.879399     -0.004080      0.028546
6
Coordinates from ORCA-job neb_MEP_ALL E -600.173324335993
  C      -0.447878     -0.000938      0.007434
  Cl      2.503609      0.005413     -0.040859
  H      -0.071524     -0.788977      0.665586
  H      -0.095560     -0.179998     -1.012038
  H      -0.079724      0.968478      0.353862
  F      -1.808924     -0.003978      0.026016
6
Coordinates from ORCA-job neb_MEP_ALL E -600.134564299856
  C       0.308438      0.001548     -0.010576
  Cl      2.140610      0.002551     -0.019709
  H      -0.030064     -0.791634      0.657690
  H      -0.035298     -0.179551     -1.029714
  H      -0.031425      0.975489      0.344389
  F      -2.352262     -0.008402      0.057921
6
Coordinates from ORCA-job neb_MEP_ALL E -600.135124521979
  C       0.295368      0.001462     -0.009731
  Cl      2.136096      0.002720     -0.021091
  H      -0.035784     -0.783273      0.651977
  H      -0.043048     -0.178011     -1.018189
  H      -0.037656      0.965138      0.342227
  F      -2.314975     -0.008037      0.054806
6
Coordinates from ORCA-job neb_MEP_ALL E -600.135262436182
  C       0.270054      0.001029     -0.006993
  Cl      2.122511      0.003515     -0.025989
  H      -0.049807     -0.784740      0.656606
  H      -0.065951     -0.178729     -1.014508
  H      -0.054876      0.965221      0.346468
  F      -2.221930     -0.006296      0.044416
6
Coordinates from ORCA-job neb_MEP_ALL E -600.134701780291
  C       0.232235      0.000408     -0.003181
  Cl      2.113150      0.004660     -0.032705
  H      -0.059074     -0.790946      0.666196
  H      -0.087693     -0.180627     -1.015107
  H      -0.068280      0.970627      0.353872
  F      -2.130338     -0.004122      0.030926
6
Coordinates from ORCA-job neb_MEP_ALL E -600.133270064426
  C       0.188299      0.000186     -0.001717
  Cl      2.117542      0.004915     -0.034448
  H      -0.063695     -0.798050      0.673345
  H      -0.095274     -0.182406     -1.022738
  H      -0.073794      0.978981      0.358308
  F      -2.073077     -0.003628      0.027249
6
Coordinates from ORCA-job neb_MEP_ALL E -600.132253280937
  C       0.152749      0.000137     -0.001291
  Cl      2.129962      0.004911     -0.034503
  H      -0.062859     -0.803384      0.677743
  H      -0.094110     -0.183641     -1.029956
  H      -0.072850      0.985644      0.360609
  F      -2.052892     -0.003666      0.027397
6
Coordinates from ORCA-job neb_MEP_ALL E -600.131550885246
  C       0.128155      0.000102     -0.000989
  Cl      2.139241      0.004905     -0.034480
  H      -0.062165     -0.806418      0.680173
  H      -0.093111     -0.184341     -1.034168
  H      -0.072056      0.989455      0.361843
  F      -2.040064     -0.003703      0.027621
6
Coordinates from ORCA-job neb_MEP_ALL E -600.131041133041
  C       0.108450      0.000067     -0.000767
  Cl      2.146741      0.004904     -0.034483
  H      -0.061641     -0.808512      0.681847
  H      -0.092380     -0.184813     -1.037035
  H      -0.071466      0.992080      0.362688
  F      -2.029704     -0.003725      0.027750
6
Coordinates from ORCA-job neb_MEP_ALL E -600.130688027705
  C       0.090720      0.000048     -0.000565
  Cl      2.153523      0.004905     -0.034512
  H      -0.061054     -0.810180      0.683185
  H      -0.091643     -0.185184     -1.039286
  H      -0.070831      0.994150      0.363358
  F      -2.020714     -0.003739      0.027820
6
Coordinates from ORCA-job neb_MEP_ALL E -600.130461946346
  C       0.073903      0.000001     -0.000320
  Cl      2.159933      0.004911     -0.034555
  H      -0.060388     -0.811557      0.684288
  H      -0.090854     -0.185499     -1.041196
  H      -0.070122      0.995892      0.363920
  F      -2.012473     -0.003749      0.027863
6
Coordinates from ORCA-job neb_MEP_ALL E -600.130373054695
  C       0.057551     -0.000023     -0.000142
  Cl      2.166146      0.004918     -0.034607
  H      -0.059657     -0.812766      0.685256
  H      -0.090001     -0.185763     -1.042799
  H      -0.069350      0.997389      0.364402
  F      -2.004689     -0.003756      0.027889
6
Coordinates from ORCA-job neb_MEP_ALL E -600.130423915284
  C       0.040777     -0.000041      0.000069
  Cl      2.172540      0.004925     -0.034666
  H      -0.058795     -0.813818      0.686094
  H      -0.089033     -0.185994     -1.044217
  H      -0.068446      0.998692      0.364816
  F      -1.997043     -0.003764      0.027904
6
Coordinates from ORCA-job neb_MEP_ALL E -600.130635515451
  C       0.022422     -0.000086      0.000315
  Cl      2.179519      0.004934     -0.034737
  H      -0.057796     -0.814797      0.686868
  H      -0.087927     -0.186210     -1.045554
  H      -0.067408      0.999928      0.365202
  F      -1.988812     -0.003770      0.027907
6
Coordinates from ORCA-job neb_MEP_ALL E -600.131147912955
  C      -0.000174     -0.000163      0.000520
  Cl      2.188069      0.004948     -0.034829
  H      -0.056496     -0.815786      0.687653
  H      -0.086502     -0.186412     -1.046835
  H      -0.066061      1.001188      0.365595
  F      -1.978836     -0.003775      0.027896
6
Coordinates from ORCA-job neb_MEP_ALL E -600.132292467281
  C      -0.025909     -0.000278      0.002150
  Cl      2.197705      0.004964     -0.034959
  H      -0.054908     -0.816269      0.687937
  H      -0.084891     -0.186711     -1.048742
  H      -0.064445      1.002071      0.365775
  F      -1.967552     -0.003776      0.027840
6
Coordinates from ORCA-job neb_MEP_ALL E -600.133940514282
  C      -0.055496      0.000112     -0.001752
  Cl      2.208547      0.004979     -0.035022
  H      -0.053111     -0.817983      0.689513
  H      -0.082867     -0.186417     -1.046858
  H      -0.062591      1.003085      0.366294
  F      -1.954482     -0.003776      0.027825
6
Coordinates from ORCA-job neb_MEP_ALL E -600.146156255651
  C      -0.169927     -0.000016      0.003653
  Cl      2.249254      0.005024     -0.035510
  H      -0.046571     -0.814832      0.686482
  H      -0.075721     -0.186284     -1.046695
  H      -0.055848      0.999853      0.364701
  F      -1.901186     -0.003745      0.027370
6
Coordinates from ORCA-job neb_MEP_ALL E -600.154334626463
  C      -0.234657     -0.000985      0.004133
  Cl      2.273348      0.005083     -0.035878
  H      -0.043329     -0.811911      0.684019
  H      -0.072145     -0.185568     -1.043001
  H      -0.052419      0.997056      0.363613
  F      -1.870797     -0.003674      0.027114
6
Coordinates from ORCA-job neb_MEP_ALL E -600.162307442785
  C      -0.290921     -0.000833      0.006486
  Cl      2.298950      0.005151     -0.036334
  H      -0.041927     -0.806139      0.679074
  H      -0.070511     -0.184452     -1.036735
  H      -0.050973      0.989909      0.360941
  F      -1.844617     -0.003635      0.026567
6
Coordinates from ORCA-job neb_MEP_ALL E -600.167336201657
  C      -0.331272     -0.000971      0.005617
  Cl      2.322517      0.005163     -0.036425
  H      -0.041646     -0.801580      0.675164
  H      -0.070493     -0.183176     -1.029821
  H      -0.050741      0.984209      0.358758
  F      -1.828365     -0.003645      0.026708
6
Coordinates from ORCA-job neb_MEP_ALL E -600.171139178529
  C      -0.372833     -0.000186      0.005101
  Cl      2.361309      0.005219     -0.036583
  H      -0.042409     -0.793372      0.668036
  H      -0.070963     -0.181220     -1.018650
  H      -0.051486      0.973338      0.354654
  F      -1.823618     -0.003779      0.027441
6
Coordinates from ORCA-job neb_MEP_ALL E -600.173027013036
  C      -0.396763     -0.000498      0.005046
  Cl      2.405879      0.005178     -0.035845
  H      -0.047210     -0.788428      0.663308
  H      -0.077043     -0.180055     -1.013203
  H      -0.056535      0.967710      0.351936
  F      -1.828328     -0.003908      0.028758
6
Coordinates from ORCA-job neb_MEP_ALL E -600.174692185828
  C      -0.418443     -0.001241      0.006959
  Cl      2.468440      0.005312     -0.037015
  H      -0.056315     -0.785141      0.660289
  H      -0.084351     -0.179273     -1.009754
  H      -0.064973      0.964324      0.350317
  F      -1.844358     -0.003981      0.029204
6
Coordinates from ORCA-job neb_MEP_ALL E -600.176515003433
  C      -0.446580     -0.000990      0.007190
  Cl      2.583148      0.005875     -0.041305
  H      -0.078785     -0.783183      0.660297
  H      -0.103713     -0.178999     -1.004787
  H      -0.086616      0.961071      0.351123
  F      -1.867456     -0.003773      0.027482
6
Coordinates from ORCA-job neb_MEP_ALL E -600.177134379498
  C      -0.464224     -0.001010      0.007124
  Cl      2.690874      0.005733     -0.041287
  H      -0.101900     -0.785722      0.662677
  H      -0.130907     -0.179707     -1.009489
  H      -0.111130      0.964758      0.352532
  F      -1.882714     -0.004052      0.028443
6
Coordinates from ORCA-job neb_MEP_ALL E -600.173324335993
  C      -0.447878     -0.000929      0.007434
  Cl      2.503609      0.005365     -0.040860
  H      -0.071539     -0.788975      0.665586
  H      -0.095564     -0.179997     -1.012038
  H      -0.079705      0.968479      0.353862
  F      -1.808924     -0.003943      0.026016
6
Coordinates from ORCA-job neb_MEP_ALL E -600.134564299856
  C       0.308438      0.001548     -0.010576
  Cl      2.140610      0.002551     -0.019709
  H      -0.030064     -0.791634      0.657690
  H      -0.035298     -0.179551     -1.029714
  H      -0.031425      0.975489      0.344389
  F      -2.352262     -0.008402      0.057921
6
Coordinates from ORCA-job neb_MEP_ALL E -600.135117577243
  C       0.292617      0.001458     -0.009702
  Cl      2.135409      0.002726     -0.021132
  H      -0.037554     -0.783660      0.652389
  H      -0.044888     -0.178100     -1.018523
  H      -0.039461      0.965561      0.342481
  F      -2.306123     -0.007985      0.054487
6
Coordinates from ORCA-job neb_MEP_ALL E -600.135256473829
  C       0.271518      0.001074     -0.007278
  Cl      2.123954      0.003463     -0.025640
  H      -0.049616     -0.784475      0.656186
  H      -0.065122     -0.178640     -1.014443
  H      -0.054462      0.964971      0.346135
  F      -2.226271     -0.006394      0.045040
6
Coordinates from ORCA-job neb_MEP_ALL E -600.134560404850
  C       0.232263      0.000478     -0.003555
  Cl      2.114593      0.004541     -0.032089
  H      -0.059880     -0.790483      0.665484
  H      -0.087181     -0.180488     -1.015160
  H      -0.068628      0.970273      0.353325
  F      -2.131167     -0.004321      0.031995
6
Coordinates from ORCA-job neb_MEP_ALL E -600.133269561352
  C       0.194360      0.000323     -0.002485
  Cl      2.119295      0.004697     -0.033226
  H      -0.062946     -0.796864      0.671603
  H      -0.091976     -0.182043     -1.022466
  H      -0.072201      0.977901      0.356978
  F      -2.086532     -0.004013      0.029596
6
Coordinates from ORCA-job neb_MEP_ALL E -600.132229929373
  C       0.159099      0.000273     -0.002052
  Cl      2.129613      0.004694     -0.033240
  H      -0.062682     -0.802433      0.676193
  H      -0.091589     -0.183313     -1.029830
  H      -0.071901      0.984793      0.359367
  F      -2.062541     -0.004013      0.029561
6
Coordinates from ORCA-job neb_MEP_ALL E -600.131521735518
  C       0.132914      0.000236     -0.001757
  Cl      2.138162      0.004687     -0.033206
  H      -0.062636     -0.805905      0.679001
  H      -0.091368     -0.184088     -1.034458
  H      -0.071795      0.989098      0.360790
  F      -2.045277     -0.004029      0.029630
6
Coordinates from ORCA-job neb_MEP_ALL E -600.131027493200
  C       0.111475      0.000210     -0.001514
  Cl      2.145798      0.004691     -0.033263
  H      -0.062319     -0.808348      0.681007
  H      -0.091014     -0.184623     -1.037610
  H      -0.071469      0.992095      0.361814
  F      -2.032471     -0.004023      0.029566
6
Coordinates from ORCA-job neb_MEP_ALL E -600.130679354096
  C       0.092065      0.000186     -0.001285
  Cl      2.152950      0.004700     -0.033344
  H      -0.061735     -0.810253      0.682577
  H      -0.090422     -0.185041     -1.040044
  H      -0.070885      0.994421      0.362618
  F      -2.021972     -0.004013      0.029479
6
Coordinates from ORCA-job neb_MEP_ALL E -600.130462888702
  C       0.073535      0.000152     -0.001060
  Cl      2.159828      0.004713     -0.033430
  H      -0.060993     -0.811822      0.683870
  H      -0.089674     -0.185385     -1.042051
  H      -0.070138      0.996343      0.363282
  F      -2.012559     -0.004002      0.029389
6
Coordinates from ORCA-job neb_MEP_ALL E -600.130373324242
  C       0.055134      0.000142     -0.000893
  Cl      2.166721      0.004724     -0.033520
  H      -0.060111     -0.813169      0.684980
  H      -0.088783     -0.185670     -1.043706
  H      -0.069255      0.997962      0.363843
  F      -2.003707     -0.003989      0.029296
6
Coordinates from ORCA-job neb_MEP_ALL E -600.130415219324
  C       0.036604      0.000134     -0.000693
  Cl      2.173688      0.004735     -0.033611
  H      -0.059115     -0.814317      0.685922
  H      -0.087782     -0.185914     -1.045136
  H      -0.068253      0.999343      0.364315
  F      -1.995143     -0.003981      0.029204
6
Coordinates from ORCA-job neb_MEP_ALL E -600.130629813629
  C       0.016280      0.000103     -0.000437
  Cl      2.181328      0.004748     -0.033713
  H      -0.057970     -0.815367      0.686775
  H      -0.086619     -0.186139     -1.046476
  H      -0.067098      1.000626      0.364742
  F      -1.985921     -0.003971      0.029109
6
Coordinates from ORCA-job neb_MEP_ALL E -600.131165829672
  C      -0.007264      0.000048     -0.000257
  Cl      2.190156      0.004764     -0.033827
  H      -0.056598     -0.816382      0.687601
  H      -0.085190     -0.186338     -1.047686
  H      -0.065704      1.001871      0.365156
  F      -1.975399     -0.003962      0.029013
6
Coordinates from ORCA-job neb_MEP_ALL E -600.132113690669
  C      -0.030151     -0.000073      0.000744
  Cl      2.198705      0.004780     -0.033950
  H      -0.055208     -0.816987      0.688042
  H      -0.083796     -0.186572     -1.049154
  H      -0.064301      1.002804      0.365412
  F      -1.965248     -0.003952      0.028905
6
Coordinates from ORCA-job neb_MEP_ALL E -600.133742520718
  C      -0.070338      0.000012      0.000364
  Cl      2.213357      0.004816     -0.034185
  H      -0.052671     -0.817825      0.688760
  H      -0.081366     -0.186590     -1.049191
  H      -0.061793      1.003494      0.365686
  F      -1.947189     -0.003907      0.028566
6
Coordinates from ORCA-job neb_MEP_ALL E -600.145325363961
  C      -0.163538      0.000034      0.001466
  Cl      2.246279      0.004855     -0.034552
  H      -0.047217     -0.816125      0.687160
  H      -0.075215     -0.186169     -1.047146
  H      -0.056105      1.001308      0.364691
  F      -1.904205     -0.003903      0.028380
6
Coordinates from ORCA-job neb_MEP_ALL E -600.154414931993
  C      -0.233151     -0.000088      0.003782
  Cl      2.271630      0.004884     -0.034877
  H      -0.043395     -0.813006      0.684359
  H      -0.070788     -0.185666     -1.044602
  H      -0.052108      0.997757      0.363201
  F      -1.872187     -0.003880      0.028136
6
Coordinates from ORCA-job neb_MEP_ALL E -600.162430695672
  C      -0.289355     -0.001001      0.005366
  Cl      2.296276      0.004974     -0.035456
  H      -0.041268     -0.807949      0.680187
  H      -0.068329     -0.184641     -1.038907
  H      -0.049764      0.992378      0.361297
  F      -1.847560     -0.003761      0.027514
6
Coordinates from ORCA-job neb_MEP_ALL E -600.167305017348
  C      -0.329990     -0.000528      0.005713
  Cl      2.319959      0.005018     -0.035906
  H      -0.040927     -0.803401      0.676431
  H      -0.068332     -0.183518     -1.032352
  H      -0.049629      0.986162      0.359140
  F      -1.831081     -0.003732      0.026973
6
Coordinates from ORCA-job neb_MEP_ALL E -600.171142243754
  C      -0.370617     -0.000613      0.005016
  Cl      2.356415      0.005083     -0.036282
  H      -0.041940     -0.794719      0.669096
  H      -0.069271     -0.181384     -1.020248
  H      -0.050582      0.975371      0.355207
  F      -1.824006     -0.003738      0.027210
6
Coordinates from ORCA-job neb_MEP_ALL E -600.173131978987
  C      -0.396896     -0.000324      0.006100
  Cl      2.400802      0.005132     -0.036186
  H      -0.046566     -0.787622      0.662947
  H      -0.074486     -0.180041     -1.012558
  H      -0.055399      0.966659      0.351918
  F      -1.827456     -0.003804      0.027779
6
Coordinates from ORCA-job neb_MEP_ALL E -600.174860354013
  C      -0.414283     -0.000988      0.005496
  Cl      2.464823      0.005041     -0.035333
  H      -0.057780     -0.786302      0.660927
  H      -0.087170     -0.179442     -1.011347
  H      -0.066862      0.965726      0.350433
  F      -1.838728     -0.004035      0.029823
6
Coordinates from ORCA-job neb_MEP_ALL E -600.176584501063
  C      -0.441236     -0.000919      0.006891
  Cl      2.567835      0.005575     -0.039616
  H      -0.076923     -0.784066      0.660400
  H      -0.102415     -0.179012     -1.006347
  H      -0.084922      0.962258      0.350757
  F      -1.862338     -0.003836      0.027915
6
Coordinates from ORCA-job neb_MEP_ALL E -600.177168693006
  C      -0.467631     -0.000925      0.006928
  Cl      2.680268      0.005513     -0.040087
  H      -0.096846     -0.783407      0.659917
  H      -0.124715     -0.178965     -1.006433
  H      -0.105715      0.961904      0.350622
  F      -1.885360     -0.004119      0.029053
6
Coordinates from ORCA-job neb_MEP_ALL E -600.173324335993
  C      -0.447880     -0.000907      0.007333
  Cl      2.503618      0.005244     -0.040295
  H      -0.071727     -0.788971      0.665570
  H      -0.095344     -0.179993     -1.012059
  H      -0.079738      0.968483      0.353843
  F      -1.808929     -0.003856      0.025608
6
Coordinates from ORCA-job neb_MEP_ALL E -600.134564299856
  C       0.308438      0.001548     -0.010576
  Cl      2.140610      0.002551     -0.019709
  H      -0.030064     -0.791634      0.657690
  H      -0.035298     -0.179551     -1.029714
  H      -0.031425      0.975489      0.344389
  F      -2.352262     -0.008402      0.057921
6
Coordinates from ORCA-job neb_MEP_ALL E -600.135158319221
  C       0.292246      0.001450     -0.009643
  Cl      2.135865      0.002719     -0.021092
  H      -0.036889     -0.783075      0.651848
  H      -0.044164     -0.177971     -1.017906
  H      -0.038773      0.964884      0.342176
  F      -2.308285     -0.008007      0.054618
6
Coordinates from ORCA-job neb_MEP_ALL E -600.135268779777
  C       0.270737      0.001024     -0.006984
  Cl      2.123731      0.003509     -0.025904
  H      -0.049579     -0.784330      0.656209
  H      -0.065574     -0.178652     -1.014166
  H      -0.054595      0.964768      0.346243
  F      -2.224720     -0.006319      0.044602
6
Coordinates from ORCA-job neb_MEP_ALL E -600.134565466478
  C       0.230238      0.000416     -0.003191
  Cl      2.114223      0.004626     -0.032607
  H      -0.059931     -0.790851      0.666095
  H      -0.088081     -0.180626     -1.015254
  H      -0.068962      0.970619      0.353824
  F      -2.127486     -0.004184      0.031133
6
Coordinates from ORCA-job neb_MEP_ALL E -600.133538829407
  C       0.191761      0.000280     -0.002213
  Cl      2.119325      0.004759     -0.033589
  H      -0.062811     -0.797565      0.672385
  H      -0.092438     -0.182244     -1.023136
  H      -0.072268      0.978691      0.357509
  F      -2.083569     -0.003921      0.029043
6
Coordinates from ORCA-job neb_MEP_ALL E -600.132473725649
  C       0.157766      0.000217     -0.001793
  Cl      2.129372      0.004750     -0.033552
  H      -0.062811     -0.802800      0.676663
  H      -0.092192     -0.183439     -1.030168
  H      -0.072189      0.985213      0.359720
  F      -2.059946     -0.003941      0.029129
6
Coordinates from ORCA-job neb_MEP_ALL E -600.131671068350
  C       0.131917      0.000172     -0.001461
  Cl      2.138130      0.004745     -0.033547
  H      -0.062654     -0.805979      0.679234
  H      -0.091863     -0.184154     -1.034445
  H      -0.071976      0.989172      0.361028
  F      -2.043554     -0.003957      0.029191
6
Coordinates from ORCA-job neb_MEP_ALL E -600.131101865952
  C       0.110669      0.000122     -0.001125
  Cl      2.145810      0.004751     -0.033614
  H      -0.062199     -0.808191      0.681042
  H      -0.091361     -0.184657     -1.037412
  H      -0.071509      0.991928      0.361962
  F      -2.031409     -0.003954      0.029146
6
Coordinates from ORCA-job neb_MEP_ALL E -600.130704742517
  C       0.091655      0.000069     -0.000810
  Cl      2.152839      0.004763     -0.033695
  H      -0.061566     -0.809922      0.682462
  H      -0.090705     -0.185053     -1.039740
  H      -0.070869      0.994090      0.362701
  F      -2.021354     -0.003947      0.029082
6
Coordinates from ORCA-job neb_MEP_ALL E -600.130458346259
  C       0.073641      0.000017     -0.000487
  Cl      2.159553      0.004776     -0.033783
  H      -0.060825     -0.811368      0.683646
  H      -0.089949     -0.185388     -1.041708
  H      -0.070121      0.995903      0.363318
  F      -2.012298     -0.003939      0.029013
6
Coordinates from ORCA-job neb_MEP_ALL E -600.130367020365
  C       0.055842     -0.000046     -0.000129
  Cl      2.166245      0.004789     -0.033877
  H      -0.059985     -0.812624      0.684671
  H      -0.089101     -0.185685     -1.043463
  H      -0.069281      0.997497      0.363857
  F      -2.003720     -0.003930      0.028941
6
Coordinates from ORCA-job neb_MEP_ALL E -600.130448722115
  C       0.037592     -0.000112      0.000232
  Cl      2.173141      0.004802     -0.033975
  H      -0.059021     -0.813719      0.685562
  H      -0.088126     -0.185945     -1.045011
  H      -0.068310      0.998899      0.364326
  F      -1.995276     -0.003924      0.028866
6
Coordinates from ORCA-job neb_MEP_ALL E -600.130741486668
  C       0.017637     -0.000160      0.000579
  Cl      2.180673      0.004816     -0.034082
  H      -0.057912     -0.814753      0.686398
  H      -0.086989     -0.186184     -1.046440
  H      -0.067187      1.000200      0.364756
  F      -1.986222     -0.003918      0.028788
6
Coordinates from ORCA-job neb_MEP_ALL E -600.131382423390
  C      -0.004758     -0.000192      0.000903
  Cl      2.189079      0.004833     -0.034203
  H      -0.056619     -0.815708      0.687166
  H      -0.085643     -0.186396     -1.047710
  H      -0.065869      1.001375      0.365139
  F      -1.976192     -0.003912      0.028705
6
Coordinates from ORCA-job neb_MEP_ALL E -600.132334227430
  C      -0.029122     -0.000247      0.001255
  Cl      2.198155      0.004852     -0.034333
  H      -0.055173     -0.816478      0.687778
  H      -0.084130     -0.186565     -1.048759
  H      -0.064394      1.002343      0.365444
  F      -1.965335     -0.003905      0.028614
6
Coordinates from ORCA-job neb_MEP_ALL E -600.134809657678
  C      -0.064479     -0.000259      0.000967
  Cl      2.211113      0.004879     -0.034504
  H      -0.052998     -0.817560      0.688674
  H      -0.081882     -0.186679     -1.049451
  H      -0.062190      1.003507      0.365847
  F      -1.949564     -0.003889      0.028467
6
Coordinates from ORCA-job neb_MEP_ALL E -600.144463294736
  C      -0.162764     -0.000694      0.003918
  Cl      2.246117      0.004966     -0.035060
  H      -0.047292     -0.815533      0.686774
  H      -0.075798     -0.186432     -1.048465
  H      -0.056325      1.001524      0.364891
  F      -1.903937     -0.003832      0.027941
6
Coordinates from ORCA-job neb_MEP_ALL E -600.154109388417
  C      -0.233026     -0.000777      0.003982
  Cl      2.272159      0.005024     -0.035409
  H      -0.043808     -0.811957      0.683685
  H      -0.071762     -0.185466     -1.043243
  H      -0.052637      0.997007      0.363142
  F      -1.870926     -0.003830      0.027843
6
Coordinates from ORCA-job neb_MEP_ALL E -600.162011382370
  C      -0.289904      0.000012      0.003061
  Cl      2.296496      0.005060     -0.035739
  H      -0.041199     -0.808672      0.680922
  H      -0.068998     -0.184469     -1.037343
  H      -0.050068      0.991927      0.361350
  F      -1.846327     -0.003858      0.027750
6
Coordinates from ORCA-job neb_MEP_ALL E -600.166990876147
  C      -0.331057     -0.001076      0.005287
  Cl      2.320132      0.005139     -0.036270
  H      -0.040728     -0.802631      0.675903
  H      -0.068040     -0.183347     -1.031201
  H      -0.049304      0.985652      0.359085
  F      -1.831003     -0.003737      0.027195
6
Coordinates from ORCA-job neb_MEP_ALL E -600.170872523722
  C      -0.371852     -0.000949      0.006595
  Cl      2.358363      0.005206     -0.036726
  H      -0.042332     -0.794972      0.669359
  H      -0.069601     -0.181670     -1.021831
  H      -0.050939      0.976131      0.355530
  F      -1.823639     -0.003746      0.027073
6
Coordinates from ORCA-job neb_MEP_ALL E -600.173001419768
  C      -0.398353     -0.000956      0.006198
  Cl      2.402945      0.005264     -0.036724
  H      -0.046308     -0.788180      0.663472
  H      -0.074120     -0.180123     -1.013149
  H      -0.055002      0.967808      0.352357
  F      -1.829162     -0.003814      0.027846
6
Coordinates from ORCA-job neb_MEP_ALL E -600.174743981422
  C      -0.417353     -0.000766      0.005769
  Cl      2.467749      0.005208     -0.036106
  H      -0.057055     -0.785557      0.660518
  H      -0.086323     -0.179323     -1.010063
  H      -0.066197      0.964496      0.350280
  F      -1.840821     -0.004059      0.029602
6
Coordinates from ORCA-job neb_MEP_ALL E -600.176434226176
  C      -0.442615     -0.001017      0.007020
  Cl      2.572971      0.005725     -0.040174
  H      -0.077747     -0.784028      0.660503
  H      -0.103335     -0.179054     -1.006259
  H      -0.085783      0.962245      0.350923
  F      -1.863490     -0.003872      0.027987
6
Coordinates from ORCA-job neb_MEP_ALL E -600.177140782006
  C      -0.465727     -0.000966      0.007019
  Cl      2.681263      0.005656     -0.040672
  H      -0.098231     -0.783530      0.660192
  H      -0.126136     -0.179012     -1.006420
  H      -0.107149      0.962006      0.350854
  F      -1.884020     -0.004155      0.029027
6
Coordinates from ORCA-job neb_MEP_ALL E -600.173324335993
  C      -0.447879     -0.000926      0.007389
  Cl      2.503613      0.005346     -0.040612
  H      -0.071610     -0.788975      0.665578
  H      -0.095465     -0.179996     -1.012047
  H      -0.079733      0.968480      0.353854
  F      -1.808926     -0.003930      0.025838
6
Coordinates from ORCA-job neb_MEP_ALL E -600.134564299856
  C       0.308438      0.001548     -0.010576
  Cl      2.140610      0.002551     -0.019709
  H      -0.030064     -0.791634      0.657690
  H      -0.035298     -0.179551     -1.029714
  H      -0.031425      0.975489      0.344389
  F      -2.352262     -0.008402      0.057921
6
Coordinates from ORCA-job neb_MEP_ALL E -600.135151296464
  C       0.292327      0.001452     -0.009653
  Cl      2.136119      0.002714     -0.021062
  H      -0.036432     -0.782761      0.651552
  H      -0.043656     -0.177896     -1.017555
  H      -0.038295      0.964515      0.342001
  F      -2.310063     -0.008024      0.054717
6
Coordinates from ORCA-job neb_MEP_ALL E -600.135256410593
  C       0.270101      0.001000     -0.006844
  Cl      2.123441      0.003547     -0.026130
  H      -0.049600     -0.784341      0.656350
  H      -0.065993     -0.178674     -1.013983
  H      -0.054755      0.964721      0.346392
  F      -2.223194     -0.006253      0.044215
6
Coordinates from ORCA-job neb_MEP_ALL E -600.134514473846
  C       0.228828      0.000380     -0.002976
  Cl      2.113887      0.004690     -0.032992
  H      -0.059872     -0.791199      0.666612
  H      -0.088648     -0.180736     -1.015360
  H      -0.069111      0.970948      0.354221
  F      -2.125084     -0.004082      0.030495
6
Coordinates from ORCA-job neb_MEP_ALL E -600.133452497495
  C       0.189444      0.000246     -0.002019
  Cl      2.119143      0.004812     -0.033882
  H      -0.062819     -0.798118      0.673011
  H      -0.092963     -0.182397     -1.023604
  H      -0.072450      0.979297      0.357933
  F      -2.080355     -0.003840      0.028561
6
Coordinates from ORCA-job neb_MEP_ALL E -600.132416511689
  C       0.156474      0.000185     -0.001620
  Cl      2.129101      0.004797     -0.033821
  H      -0.062993     -0.803021      0.676995
  H      -0.092807     -0.183515     -1.030257
  H      -0.072515      0.985428      0.359980
  F      -2.057259     -0.003874      0.028722
6
Coordinates from ORCA-job neb_MEP_ALL E -600.131635062121
  C       0.131006      0.000135     -0.001270
  Cl      2.138061      0.004796     -0.033845
  H      -0.062687     -0.806010      0.679419
  H      -0.092336     -0.184192     -1.034299
  H      -0.072158      0.989160      0.361221
  F      -2.041887     -0.003889      0.028774
6
Coordinates from ORCA-job neb_MEP_ALL E -600.131081615848
  C       0.109987      0.000085     -0.000940
  Cl      2.145781      0.004803     -0.033913
  H      -0.062121     -0.808112      0.681135
  H      -0.091697     -0.184674     -1.037143
  H      -0.071569      0.991788      0.362110
  F      -2.030381     -0.003889      0.028752
6
Coordinates from ORCA-job neb_MEP_ALL E -600.130691340278
  C       0.091333      0.000035     -0.000634
  Cl      2.152720      0.004814     -0.033989
  H      -0.061455     -0.809767      0.682488
  H      -0.090983     -0.185056     -1.039389
  H      -0.070887      0.993859      0.362812
  F      -2.020728     -0.003886      0.028713
6
Coordinates from ORCA-job neb_MEP_ALL E -600.130458176064
  C       0.073761     -0.000009     -0.000340
  Cl      2.159304      0.004826     -0.034071
  H      -0.060723     -0.811168      0.683633
  H      -0.090212     -0.185379     -1.041295
  H      -0.070141      0.995612      0.363406
  F      -2.011990     -0.003881      0.028667
6
Coordinates from ORCA-job neb_MEP_ALL E -600.130376405736
  C       0.056465     -0.000063     -0.000022
  Cl      2.165828      0.004838     -0.034158
  H      -0.059924     -0.812415      0.684648
  H      -0.089380     -0.185670     -1.043020
  H      -0.069333      0.997186      0.363936
  F      -2.003656     -0.003876      0.028615
6
Coordinates from ORCA-job neb_MEP_ALL E -600.130443971172
  C       0.038483     -0.000118      0.000293
  Cl      2.172652      0.004850     -0.034250
  H      -0.058990     -0.813524      0.685551
  H      -0.088414     -0.185928     -1.044558
  H      -0.068386      0.998593      0.364406
  F      -1.995345     -0.003872      0.028559
6
Coordinates from ORCA-job neb_MEP_ALL E -600.130714199635
  C       0.018985     -0.000165      0.000611
  Cl      2.180037      0.004863     -0.034352
  H      -0.057917     -0.814558      0.686388
  H      -0.087300     -0.186166     -1.045980
  H      -0.067295      0.999895      0.364837
  F      -1.986511     -0.003869      0.028496
6
Coordinates from ORCA-job neb_MEP_ALL E -600.131298152087
  C      -0.002574     -0.000209      0.001003
  Cl      2.188144      0.004879     -0.034467
  H      -0.056673     -0.815470      0.687115
  H      -0.086011     -0.186381     -1.047279
  H      -0.066029      1.001045      0.365207
  F      -1.976857     -0.003864      0.028421
6
Coordinates from ORCA-job neb_MEP_ALL E -600.132286554641
  C      -0.028103     -0.000230      0.001136
  Cl      2.197638      0.004898     -0.034598
  H      -0.055162     -0.816325      0.687808
  H      -0.084418     -0.186534     -1.048216
  H      -0.064485      1.002050      0.365536
  F      -1.965470     -0.003858      0.028334
6
Coordinates from ORCA-job neb_MEP_ALL E -600.134398918871
  C      -0.059441     -0.000365      0.002094
  Cl      2.209170      0.004920     -0.034754
  H      -0.053281     -0.816939      0.688242
  H      -0.082378     -0.186753     -1.049634
  H      -0.062541      1.002993      0.365777
  F      -1.951530     -0.003856      0.028275
6
Coordinates from ORCA-job neb_MEP_ALL E -600.144405621382
  C      -0.162468     -0.000627      0.003344
  Cl      2.246047      0.005013     -0.035339
  H      -0.047288     -0.815719      0.687118
  H      -0.076262     -0.186410     -1.047913
  H      -0.056482      1.001524      0.365124
  F      -1.903547     -0.003782      0.027666
6
Coordinates from ORCA-job neb_MEP_ALL E -600.154194794023
  C      -0.233062     -0.000854      0.004498
  Cl      2.272545      0.005079     -0.035727
  H      -0.043999     -0.811770      0.683685
  H      -0.072491     -0.185514     -1.043136
  H      -0.053000      0.996818      0.363272
  F      -1.869993     -0.003759      0.027408
6
Coordinates from ORCA-job neb_MEP_ALL E -600.162119905609
  C      -0.289925     -0.000740      0.004611
  Cl      2.297050      0.005122     -0.035999
  H      -0.041826     -0.807302      0.679814
  H      -0.069763     -0.184390     -1.036983
  H      -0.050654      0.991096      0.361068
  F      -1.844882     -0.003786      0.027487
6
Coordinates from ORCA-job neb_MEP_ALL E -600.167100782865
  C      -0.331771     -0.000495      0.004436
  Cl      2.320486      0.005186     -0.036422
  H      -0.040750     -0.802503      0.675818
  H      -0.068318     -0.183214     -1.030106
  H      -0.049482      0.984816      0.358866
  F      -1.830166     -0.003791      0.027407
6
Coordinates from ORCA-job neb_MEP_ALL E -600.170956767968
  C      -0.372497     -0.001033      0.006425
  Cl      2.359934      0.005263     -0.036965
  H      -0.042589     -0.794920      0.669396
  H      -0.069986     -0.181660     -1.021606
  H      -0.051199      0.976095      0.355614
  F      -1.823663     -0.003745      0.027135
6
Coordinates from ORCA-job neb_MEP_ALL E -600.173076427344
  C      -0.398907     -0.001128      0.006229
  Cl      2.404882      0.005316     -0.037001
  H      -0.046404     -0.788700      0.663905
  H      -0.074239     -0.180191     -1.013638
  H      -0.055067      0.968525      0.352594
  F      -1.830265     -0.003821      0.027911
6
Coordinates from ORCA-job neb_MEP_ALL E -600.174836056296
  C      -0.419691     -0.000805      0.006226
  Cl      2.469889      0.005310     -0.036764
  H      -0.056380     -0.784887      0.660150
  H      -0.085257     -0.179230     -1.009115
  H      -0.065414      0.963637      0.350206
  F      -1.843148     -0.004024      0.029297
6
Coordinates from ORCA-job neb_MEP_ALL E -600.176484650034
  C      -0.443945     -0.001033      0.007067
  Cl      2.577368      0.005804     -0.040574
  H      -0.078355     -0.783918      0.660538
  H      -0.103994     -0.179073     -1.006045
  H      -0.086401      0.962088      0.351029
  F      -1.864673     -0.003868      0.027985
6
Coordinates from ORCA-job neb_MEP_ALL E -600.177154533610
  C      -0.464224     -0.000989      0.007089
  Cl      2.682481      0.005725     -0.041077
  H      -0.099579     -0.783987      0.660748
  H      -0.127564     -0.179141     -1.006906
  H      -0.108532      0.962536      0.351231
  F      -1.882583     -0.004145      0.028916
6
Coordinates from ORCA-job neb_MEP_ALL E -600.173324335993
  C      -0.447878     -0.000933      0.007424
  Cl      2.503610      0.005385     -0.040806
  H      -0.071547     -0.788976      0.665584
  H      -0.095540     -0.179997     -1.012040
  H      -0.079720      0.968478      0.353860
  F      -1.808924     -0.003958      0.025978
6
Coordinates from ORCA-job neb_MEP_ALL E -600.134564299856
  C       0.308438      0.001548     -0.010576
  Cl      2.140610      0.002551     -0.019709
  H      -0.030064     -0.791634      0.657690
  H      -0.035298     -0.179551     -1.029714
  H      -0.031425      0.975489      0.344389
  F      -2.352262     -0.008402      0.057921
6
Coordinates from ORCA-job neb_MEP_ALL E -600.135145031445
  C       0.292323      0.001457     -0.009685
  Cl      2.136091      0.002711     -0.021049
  H      -0.036466     -0.782752      0.651540
  H      -0.043667     -0.177888     -1.017524
  H      -0.038320      0.964498      0.341989
  F      -2.309962     -0.008027      0.054729
6
Coordinates from ORCA-job neb_MEP_ALL E -600.135256028581
  C       0.269847      0.000999     -0.006834
  Cl      2.123350      0.003571     -0.026267
  H      -0.049640     -0.784423      0.656506
  H      -0.066259     -0.178695     -1.013894
  H      -0.054873      0.964760      0.346514
  F      -2.222426     -0.006212      0.043973
6
Coordinates from ORCA-job neb_MEP_ALL E -600.134476642321
  C       0.227896      0.000372     -0.002919
  Cl      2.113831      0.004716     -0.033163
  H      -0.059885     -0.791423      0.666904
  H      -0.088889     -0.180796     -1.015473
  H      -0.069198      0.971172      0.354429
  F      -2.123755     -0.004041      0.030222
6
Coordinates from ORCA-job neb_MEP_ALL E -600.133370563529
  C       0.188493      0.000244     -0.002016
  Cl      2.119141      0.004818     -0.033913
  H      -0.062823     -0.798285      0.673162
  H      -0.092980     -0.182434     -1.023786
  H      -0.072461      0.979491      0.358018
  F      -2.079369     -0.003834      0.028535
6
Coordinates from ORCA-job neb_MEP_ALL E -600.132360877721
  C       0.156242      0.000191     -0.001636
  Cl      2.128876      0.004802     -0.033847
  H      -0.063135     -0.802973      0.676965
  H      -0.092951     -0.183499     -1.030146
  H      -0.072657      0.985349      0.359964
  F      -2.056374     -0.003870      0.028699
6
Coordinates from ORCA-job neb_MEP_ALL E -600.131602664490
  C       0.130925      0.000144     -0.001293
  Cl      2.137866      0.004803     -0.033892
  H      -0.062777     -0.805956      0.679396
  H      -0.092452     -0.184175     -1.034148
  H      -0.072257      0.989064      0.361216
  F      -2.041305     -0.003880      0.028720
6
Coordinates from ORCA-job neb_MEP_ALL E -600.131050987607
  C       0.109926      0.000102     -0.000997
  Cl      2.145607      0.004812     -0.033965
  H      -0.062174     -0.808091      0.681147
  H      -0.091776     -0.184661     -1.036999
  H      -0.071630      0.991718      0.362121
  F      -2.029952     -0.003880      0.028692
6
Coordinates from ORCA-job neb_MEP_ALL E -600.130688184231
  C       0.091321      0.000065     -0.000732
  Cl      2.152537      0.004823     -0.034041
  H      -0.061496     -0.809772      0.682525
  H      -0.091046     -0.185043     -1.039238
  H      -0.070934      0.993803      0.362833
  F      -2.020382     -0.003876      0.028653
6
Coordinates from ORCA-job neb_MEP_ALL E -600.130469789527
  C       0.073832      0.000030     -0.000485
  Cl      2.159096      0.004834     -0.034121
  H      -0.060763     -0.811193      0.683689
  H      -0.090270     -0.185364     -1.041124
  H      -0.070188      0.995564      0.363434
  F      -2.011708     -0.003871      0.028607
6
Coordinates from ORCA-job neb_MEP_ALL E -600.130371143002
  C       0.056608     -0.000004     -0.000240
  Cl      2.165593      0.004845     -0.034205
  H      -0.059971     -0.812460      0.684725
  H      -0.089435     -0.185649     -1.042803
  H      -0.069382      0.997133      0.363966
  F      -2.003413     -0.003865      0.028556
6
Coordinates from ORCA-job neb_MEP_ALL E -600.130430387928
  C       0.038619     -0.000037      0.000010
  Cl      2.172424      0.004856     -0.034294
  H      -0.059039     -0.813595      0.685652
  H      -0.088466     -0.185903     -1.044307
  H      -0.068435      0.998541      0.364441
  F      -1.995102     -0.003862      0.028499
6
Coordinates from ORCA-job neb_MEP_ALL E -600.130697903886
  C       0.019298     -0.000076      0.000287
  Cl      2.179746      0.004868     -0.034392
  H      -0.057975     -0.814630      0.686493
  H      -0.087363     -0.186135     -1.045694
  H      -0.067355      0.999832      0.364871
  F      -1.986351     -0.003858      0.028435
6
Coordinates from ORCA-job neb_MEP_ALL E -600.131243197497
  C      -0.001989     -0.000123      0.000621
  Cl      2.187754      0.004882     -0.034502
  H      -0.056744     -0.815553      0.687235
  H      -0.086095     -0.186345     -1.046960
  H      -0.066106      1.000991      0.365249
  F      -1.976819     -0.003852      0.028357
6
Coordinates from ORCA-job neb_MEP_ALL E -600.132246360054
  C      -0.027622     -0.000174      0.000975
  Cl      2.197281      0.004901     -0.034636
  H      -0.055215     -0.816368      0.687884
  H      -0.084510     -0.186524     -1.048054
  H      -0.064552      1.002008      0.365573
  F      -1.965382     -0.003844      0.028258
6
Coordinates from ORCA-job neb_MEP_ALL E -600.134052587762
  C      -0.058309     -0.000242      0.001534
  Cl      2.208563      0.004921     -0.034779
  H      -0.053381     -0.816946      0.688308
  H      -0.082521     -0.186673     -1.049037
  H      -0.062659      1.002783      0.365777
  F      -1.951694     -0.003842      0.028198
6
Coordinates from ORCA-job neb_MEP_ALL E -600.144380914663
  C      -0.160809     -0.000445      0.003004
  Cl      2.245307      0.005003     -0.035334
  H      -0.047437     -0.815767      0.687207
  H      -0.076445     -0.186384     -1.047617
  H      -0.056654      1.001362      0.365133
  F      -1.903962     -0.003770      0.027607
6
Coordinates from ORCA-job neb_MEP_ALL E -600.154247264802
  C      -0.233020     -0.000581      0.003899
  Cl      2.272477      0.005066     -0.035737
  H      -0.043970     -0.812375      0.684274
  H      -0.072722     -0.185568     -1.043186
  H      -0.053080      0.997185      0.363519
  F      -1.869685     -0.003728      0.027231
6
Coordinates from ORCA-job neb_MEP_ALL E -600.162234646637
  C      -0.289662     -0.000881      0.005338
  Cl      2.297231      0.005115     -0.036030
  H      -0.042125     -0.806987      0.679576
  H      -0.070182     -0.184421     -1.037107
  H      -0.050973      0.990901      0.361029
  F      -1.844290     -0.003727      0.027194
6
Coordinates from ORCA-job neb_MEP_ALL E -600.167207305247
  C      -0.331789     -0.000868      0.005550
  Cl      2.320692      0.005175     -0.036369
  H      -0.041185     -0.801865      0.675204
  H      -0.068584     -0.183215     -1.030365
  H      -0.049807      0.984525      0.358650
  F      -1.829328     -0.003752      0.027331
6
Coordinates from ORCA-job neb_MEP_ALL E -600.171037967574
  C      -0.372524     -0.000770      0.005698
  Cl      2.360263      0.005261     -0.036981
  H      -0.042670     -0.794865      0.669376
  H      -0.070020     -0.181554     -1.020853
  H      -0.051281      0.975687      0.355516
  F      -1.823767     -0.003760      0.027244
6
Coordinates from ORCA-job neb_MEP_ALL E -600.173135772743
  C      -0.398854     -0.000979      0.006231
  Cl      2.405673      0.005315     -0.037127
  H      -0.046671     -0.788856      0.664062
  H      -0.074321     -0.180197     -1.013617
  H      -0.055301      0.968533      0.352628
  F      -1.830526     -0.003816      0.027822
6
Coordinates from ORCA-job neb_MEP_ALL E -600.174898825764
  C      -0.420479     -0.000904      0.006344
  Cl      2.470891      0.005329     -0.037003
  H      -0.056206     -0.784622      0.660035
  H      -0.084812     -0.179188     -1.008689
  H      -0.065131      0.963363      0.350229
  F      -1.844264     -0.003978      0.029084
6
Coordinates from ORCA-job neb_MEP_ALL E -600.176536783929
  C      -0.444254     -0.001008      0.007051
  Cl      2.578541      0.005795     -0.040568
  H      -0.078514     -0.783888      0.660521
  H      -0.104227     -0.179076     -1.006015
  H      -0.086574      0.962031      0.351025
  F      -1.864973     -0.003854      0.027986
6
Coordinates from ORCA-job neb_MEP_ALL E -600.177158428842
  C      -0.463807     -0.000987      0.007105
  Cl      2.682000      0.005718     -0.041133
  H      -0.099862     -0.784251      0.660993
  H      -0.127746     -0.179194     -1.007181
  H      -0.108780      0.962838      0.351364
  F      -1.881805     -0.004124      0.028851
6
Coordinates from ORCA-job neb_MEP_ALL E -600.173324335993
  C      -0.447878     -0.000930      0.007423
  Cl      2.503610      0.005372     -0.040803
  H      -0.071552     -0.788975      0.665584
  H      -0.095540     -0.179997     -1.012040
  H      -0.079716      0.968479      0.353860
  F      -1.808924     -0.003948      0.025975
6
Coordinates from ORCA-job neb_MEP_ALL E -600.134564299856
  C       0.308438      0.001548     -0.010576
  Cl      2.140610      0.002551     -0.019709
  H      -0.030064     -0.791634      0.657690
  H      -0.035298     -0.179551     -1.029714
  H      -0.031425      0.975489      0.344389
  F      -2.352262     -0.008402      0.057921
6
Coordinates from ORCA-job neb_MEP_ALL E -600.135146353578
  C       0.292249      0.001463     -0.009718
  Cl      2.135905      0.002708     -0.021039
  H      -0.036773     -0.782877      0.651652
  H      -0.043957     -0.177911     -1.017647
  H      -0.038619      0.964642      0.342048
  F      -2.308805     -0.008026      0.054705
6
Coordinates from ORCA-job neb_MEP_ALL E -600.135268369549
  C       0.269573      0.000996     -0.006819
  Cl      2.123291      0.003607     -0.026465
  H      -0.049711     -0.784575      0.656761
  H      -0.066661     -0.178733     -1.013806
  H      -0.055058      0.964855      0.346710
  F      -2.221434     -0.006150      0.043620
6
Coordinates from ORCA-job neb_MEP_ALL E -600.134453607141
  C       0.226534      0.000368     -0.002870
  Cl      2.113872      0.004740     -0.033338
  H      -0.059955     -0.791716      0.667260
  H      -0.089143     -0.180873     -1.015679
  H      -0.069324      0.971486      0.354675
  F      -2.121984     -0.004004      0.029952
6
Coordinates from ORCA-job neb_MEP_ALL E -600.133341326042
  C       0.187651      0.000256     -0.002088
  Cl      2.119229      0.004805     -0.033830
  H      -0.062857     -0.798343      0.673150
  H      -0.092778     -0.182436     -1.023936
  H      -0.072418      0.979582      0.357975
  F      -2.078827     -0.003863      0.028730
6
Coordinates from ORCA-job neb_MEP_ALL E -600.132358173929
  C       0.156369      0.000211     -0.001729
  Cl      2.128576      0.004790     -0.033772
  H      -0.063336     -0.802783      0.676753
  H      -0.092947     -0.183438     -1.029921
  H      -0.072793      0.985114      0.359815
  F      -2.055868     -0.003894      0.028855
6
Coordinates from ORCA-job neb_MEP_ALL E -600.131602479761
  C       0.131215      0.000169     -0.001398
  Cl      2.137498      0.004794     -0.033845
  H      -0.062945     -0.805841      0.679269
  H      -0.092463     -0.184131     -1.033966
  H      -0.072373      0.988904      0.361120
  F      -2.040932     -0.003896      0.028820
6
Coordinates from ORCA-job neb_MEP_ALL E -600.131065596491
  C       0.110141      0.000137     -0.001135
  Cl      2.145255      0.004805     -0.033929
  H      -0.062321     -0.808080      0.681116
  H      -0.091782     -0.184635     -1.036897
  H      -0.071729      0.991663      0.362076
  F      -2.029563     -0.003892      0.028768
6
Coordinates from ORCA-job neb_MEP_ALL E -600.130696624225
  C       0.091458      0.000111     -0.000908
  Cl      2.152210      0.004817     -0.034010
  H      -0.061632     -0.809830      0.682560
  H      -0.091051     -0.185027     -1.039175
  H      -0.071026      0.993814      0.362821
  F      -2.019959     -0.003885      0.028713
6
Coordinates from ORCA-job neb_MEP_ALL E -600.130463377814
  C       0.073933      0.000083     -0.000695
  Cl      2.158776      0.004827     -0.034093
  H      -0.060892     -0.811288      0.683761
  H      -0.090275     -0.185351     -1.041068
  H      -0.070276      0.995608      0.363439
  F      -2.011267     -0.003878      0.028656
6
Coordinates from ORCA-job neb_MEP_ALL E -600.130369501636
  C       0.056599      0.000065     -0.000507
  Cl      2.165303      0.004838     -0.034178
  H      -0.060088     -0.812576      0.684820
  H      -0.089431     -0.185632     -1.042709
  H      -0.069460      0.997176      0.363978
  F      -2.002923     -0.003871      0.028596
6
Coordinates from ORCA-job neb_MEP_ALL E -600.130427881790
  C       0.038483      0.000048     -0.000299
  Cl      2.172176      0.004849     -0.034268
  H      -0.059145     -0.813730      0.685766
  H      -0.088457     -0.185882     -1.044185
  H      -0.068504      0.998581      0.364457
  F      -1.994553     -0.003866      0.028529
6
Coordinates from ORCA-job neb_MEP_ALL E -600.130689999178
  C       0.019302      0.000017     -0.000054
  Cl      2.179439      0.004860     -0.034364
  H      -0.058082     -0.814759      0.686607
  H      -0.087366     -0.186109     -1.045530
  H      -0.067428      0.999852      0.364886
  F      -1.985865     -0.003861      0.028456
6
Coordinates from ORCA-job neb_MEP_ALL E -600.131214353556
  C      -0.001849     -0.000030      0.000210
  Cl      2.187393      0.004874     -0.034472
  H      -0.056853     -0.815699      0.687370
  H      -0.086109     -0.186313     -1.046753
  H      -0.066187      1.001021      0.365275
  F      -1.976395     -0.003853      0.028369
6
Coordinates from ORCA-job neb_MEP_ALL E -600.132221547118
  C      -0.027045     -0.000106      0.000755
  Cl      2.196755      0.004892     -0.034606
  H      -0.055333     -0.816490      0.687993
  H      -0.084567     -0.186518     -1.047998
  H      -0.064654      1.002064      0.365602
  F      -1.965155     -0.003841      0.028254
6
Coordinates from ORCA-job neb_MEP_ALL E -600.133980899314
  C      -0.058388     -0.000133      0.000999
  Cl      2.208239      0.004913     -0.034759
  H      -0.053441     -0.817014      0.688397
  H      -0.082591     -0.186600     -1.048543
  H      -0.062728      1.002663      0.365775
  F      -1.951091     -0.003830      0.028131
6
Coordinates from ORCA-job neb_MEP_ALL E -600.144186075720
  C      -0.157195     -0.000250      0.002456
  Cl      2.243652      0.004978     -0.035245
  H      -0.047732     -0.815824      0.687278
  H      -0.076623     -0.186332     -1.047255
  H      -0.056924      1.001204      0.365107
  F      -1.905177     -0.003777      0.027660
6
Coordinates from ORCA-job neb_MEP_ALL E -600.154254421180
  C      -0.232772     -0.000333      0.003581
  Cl      2.272088      0.005040     -0.035683
  H      -0.043936     -0.812945      0.684794
  H      -0.072767     -0.185663     -1.043557
  H      -0.053102      0.997611      0.363737
  F      -1.869510     -0.003709      0.027128
6
Coordinates from ORCA-job neb_MEP_ALL E -600.162239314107
  C      -0.289357     -0.000733      0.005145
  Cl      2.297252      0.005098     -0.036039
  H      -0.042213     -0.807493      0.680086
  H      -0.070603     -0.184503     -1.037339
  H      -0.051180      0.991303      0.361286
  F      -1.843899     -0.003671      0.026860
6
Coordinates from ORCA-job neb_MEP_ALL E -600.167249345839
  C      -0.331632     -0.001063      0.006422
  Cl      2.321044      0.005143     -0.036259
  H      -0.041703     -0.801562      0.674880
  H      -0.069180     -0.183235     -1.030684
  H      -0.050322      0.984420      0.358516
  F      -1.828207     -0.003703      0.027126
6
Coordinates from ORCA-job neb_MEP_ALL E -600.171051088938
  C      -0.372327     -0.000683      0.005447
  Cl      2.360123      0.005245     -0.036930
  H      -0.042854     -0.794437      0.668982
  H      -0.069871     -0.181425     -1.020124
  H      -0.051347      0.975061      0.355261
  F      -1.823723     -0.003762      0.027363
6
Coordinates from ORCA-job neb_MEP_ALL E -600.173154337213
  C      -0.398603     -0.000702      0.006161
  Cl      2.406362      0.005311     -0.037307
  H      -0.047161     -0.788835      0.664114
  H      -0.074422     -0.180153     -1.013214
  H      -0.055718      0.968187      0.352589
  F      -1.830459     -0.003808      0.027656
6
Coordinates from ORCA-job neb_MEP_ALL E -600.174927145035
  C      -0.420964     -0.000998      0.006362
  Cl      2.472093      0.005337     -0.037242
  H      -0.056272     -0.784448      0.660022
  H      -0.084531     -0.179152     -1.008273
  H      -0.065060      0.963181      0.350311
  F      -1.845267     -0.003921      0.028819
6
Coordinates from ORCA-job neb_MEP_ALL E -600.176538346813
  C      -0.444253     -0.000974      0.007013
  Cl      2.578878      0.005758     -0.040408
  H      -0.078543     -0.783871      0.660463
  H      -0.104420     -0.179074     -1.006064
  H      -0.086639      0.962003      0.350966
  F      -1.865023     -0.003842      0.028030
6
Coordinates from ORCA-job neb_MEP_ALL E -600.177156563284
  C      -0.463585     -0.000978      0.007112
  Cl      2.680185      0.005690     -0.041111
  H      -0.099707     -0.784539      0.661202
  H      -0.127360     -0.179232     -1.007454
  H      -0.108548      0.963161      0.351442
  F      -1.880986     -0.004103      0.028810
6
Coordinates from ORCA-job neb_MEP_ALL E -600.173324335993
  C      -0.447879     -0.000925      0.007414
  Cl      2.503611      0.005344     -0.040752
  H      -0.071574     -0.788974      0.665583
  H      -0.095522     -0.179996     -1.012042
  H      -0.079712      0.968480      0.353858
  F      -1.808925     -0.003928      0.025939
6
Coordinates from ORCA-job neb_MEP_ALL E -600.134564299856
  C       0.308438      0.001548     -0.010576
  Cl      2.140610      0.002551     -0.019709
  H      -0.030064     -0.791634      0.657690
  H      -0.035298     -0.179551     -1.029714
  H      -0.031425      0.975489      0.344389
  F      -2.352262     -0.008402      0.057921
6
Coordinates from ORCA-job neb_MEP_ALL E -600.135158236758
  C       0.291926      0.001468     -0.009741
  Cl      2.135462      0.002702     -0.021020
  H      -0.037508     -0.783129      0.651880
  H      -0.044674     -0.177964     -1.017932
  H      -0.039344      0.964944      0.342173
  F      -2.305862     -0.008021      0.054640
6
Coordinates from ORCA-job neb_MEP_ALL E -600.135257971203
  C       0.268890      0.000968     -0.006664
  Cl      2.123154      0.003691     -0.026929
  H      -0.049858     -0.784860      0.657290
  H      -0.067602     -0.178826     -1.013636
  H      -0.055478      0.965034      0.347140
  F      -2.219107     -0.006007      0.042799
6
Coordinates from ORCA-job neb_MEP_ALL E -600.134420937696
  C       0.223572      0.000351     -0.002730
  Cl      2.113978      0.004784     -0.033663
  H      -0.060152     -0.792293      0.667946
  H      -0.089651     -0.181032     -1.016167
  H      -0.069614      0.972131      0.355149
  F      -2.118132     -0.003941      0.029465
6
Coordinates from ORCA-job neb_MEP_ALL E -600.133308078338
  C       0.186194      0.000282     -0.002238
  Cl      2.119429      0.004766     -0.033592
  H      -0.063015     -0.798380      0.673008
  H      -0.092318     -0.182421     -1.024246
  H      -0.072376      0.979700      0.357804
  F      -2.077914     -0.003946      0.029265
6
Coordinates from ORCA-job neb_MEP_ALL E -600.132347808311
  C       0.156874      0.000242     -0.001891
  Cl      2.127985      0.004755     -0.033571
  H      -0.063766     -0.802419      0.676305
  H      -0.092865     -0.183324     -1.029604
  H      -0.073057      0.984705      0.359489
  F      -2.055171     -0.003960      0.029273
6
Coordinates from ORCA-job neb_MEP_ALL E -600.131604124205
  C       0.132029      0.000203     -0.001555
  Cl      2.136699      0.004769     -0.033702
  H      -0.063312     -0.805623      0.678988
  H      -0.092426     -0.184052     -1.033754
  H      -0.072607      0.988648      0.360904
  F      -2.040382     -0.003945      0.029118
6
Coordinates from ORCA-job neb_MEP_ALL E -600.131061537328
  C       0.110769      0.000175     -0.001300
  Cl      2.144467      0.004785     -0.033811
  H      -0.062655     -0.808031      0.680997
  H      -0.091762     -0.184594     -1.036848
  H      -0.071944      0.991596      0.361953
  F      -2.028876     -0.003931      0.029010
6
Coordinates from ORCA-job neb_MEP_ALL E -600.130696341658
  C       0.091838      0.000151     -0.001079
  Cl      2.151489      0.004798     -0.033908
  H      -0.061940     -0.809887      0.682540
  H      -0.091039     -0.185009     -1.039226
  H      -0.071230      0.993865      0.362756
  F      -2.019118     -0.003918      0.028918
6
Coordinates from ORCA-job neb_MEP_ALL E -600.130462146805
  C       0.074130      0.000126     -0.000880
  Cl      2.158098      0.004810     -0.034001
  H      -0.061177     -0.811404      0.683800
  H      -0.090266     -0.185343     -1.041158
  H      -0.070467      0.995716      0.363407
  F      -2.010318     -0.003906      0.028832
6
Coordinates from ORCA-job neb_MEP_ALL E -600.130369813884
  C       0.056465      0.000116     -0.000715
  Cl      2.164724      0.004821     -0.034094
  H      -0.060338     -0.812712      0.684885
  H      -0.089407     -0.185624     -1.042782
  H      -0.069623      0.997294      0.363959
  F      -2.001820     -0.003896      0.028748
6
Coordinates from ORCA-job neb_MEP_ALL E -600.130429606211
  C       0.038065      0.000106     -0.000519
  Cl      2.171686      0.004832     -0.034192
  H      -0.059365     -0.813877      0.685848
  H      -0.088424     -0.185875     -1.044243
  H      -0.068644      0.998700      0.364447
  F      -1.993319     -0.003887      0.028658
6
Coordinates from ORCA-job neb_MEP_ALL E -600.130689724125
  C       0.019091      0.000078     -0.000281
  Cl      2.178853      0.004844     -0.034293
  H      -0.058299     -0.814882      0.686674
  H      -0.087351     -0.186095     -1.045536
  H      -0.067574      0.999933      0.364871
  F      -1.984721     -0.003878      0.028565
6
Coordinates from ORCA-job neb_MEP_ALL E -600.131207825389
  C      -0.001842      0.000036     -0.000064
  Cl      2.186717      0.004857     -0.034402
  H      -0.057070     -0.815827      0.687454
  H      -0.086114     -0.186295     -1.046719
  H      -0.066342      1.001097      0.365271
  F      -1.975348     -0.003868      0.028460
6
Coordinates from ORCA-job neb_MEP_ALL E -600.132199553403
  C      -0.025949     -0.000055      0.000570
  Cl      2.195668      0.004874     -0.034537
  H      -0.055591     -0.816619      0.688078
  H      -0.084656     -0.186517     -1.048046
  H      -0.064867      1.002167      0.365611
  F      -1.964605     -0.003851      0.028324
6
Coordinates from ORCA-job neb_MEP_ALL E -600.133985008035
  C      -0.059151     -0.000051      0.000600
  Cl      2.207767      0.004901     -0.034727
  H      -0.053535     -0.817143      0.688518
  H      -0.082664     -0.186556     -1.048256
  H      -0.062827      1.002667      0.365794
  F      -1.949589     -0.003819      0.028071
6
Coordinates from ORCA-job neb_MEP_ALL E -600.143733774880
  C      -0.148725     -0.000135      0.002073
  Cl      2.239771      0.004947     -0.035115
  H      -0.048367     -0.815883      0.687326
  H      -0.076999     -0.186319     -1.047200
  H      -0.057491      1.001191      0.365098
  F      -1.908189     -0.003800      0.027818
6
Coordinates from ORCA-job neb_MEP_ALL E -600.154210814394
  C      -0.231962     -0.000156      0.003089
  Cl      2.271068      0.005012     -0.035607
  H      -0.043975     -0.813381      0.685206
  H      -0.072745     -0.185716     -1.043738
  H      -0.053153      0.997947      0.363918
  F      -1.869233     -0.003705      0.027132
6
Coordinates from ORCA-job neb_MEP_ALL E -600.162218527294
  C      -0.288742     -0.000626      0.005296
  Cl      2.296925      0.005092     -0.036107
  H      -0.042270     -0.808312      0.680906
  H      -0.071055     -0.184725     -1.038251
  H      -0.051390      0.992167      0.361770
  F      -1.843469     -0.003597      0.026387
6
Coordinates from ORCA-job neb_MEP_ALL E -600.167277602033
  C      -0.331791     -0.001052      0.006455
  Cl      2.321925      0.005118     -0.036190
  H      -0.042215     -0.802026      0.675293
  H      -0.070370     -0.183285     -1.030964
  H      -0.051053      0.984878      0.358701
  F      -1.826497     -0.003633      0.026705
6
Coordinates from ORCA-job neb_MEP_ALL E -600.171060460993
  C      -0.372123     -0.000619      0.005415
  Cl      2.359726      0.005235     -0.036850
  H      -0.043207     -0.793811      0.668352
  H      -0.069736     -0.181257     -1.019300
  H      -0.051530      0.974223      0.354849
  F      -1.823129     -0.003770      0.027535
6
Coordinates from ORCA-job neb_MEP_ALL E -600.173170375521
  C      -0.398374     -0.000524      0.006237
  Cl      2.407557      0.005340     -0.037741
  H      -0.048146     -0.788492      0.663978
  H      -0.074489     -0.180044     -1.012366
  H      -0.056451      0.967509      0.352511
  F      -1.830096     -0.003790      0.027379
6
Coordinates from ORCA-job neb_MEP_ALL E -600.174950649517
  C      -0.421761     -0.001052      0.006421
  Cl      2.474712      0.005389     -0.037807
  H      -0.056703     -0.784228      0.660109
  H      -0.084263     -0.179110     -1.007551
  H      -0.065265      0.962844      0.350500
  F      -1.846720     -0.003843      0.028329
6
Coordinates from ORCA-job neb_MEP_ALL E -600.176546570555
  C      -0.444094     -0.000946      0.006944
  Cl      2.578986      0.005711     -0.040094
  H      -0.078471     -0.783850      0.660327
  H      -0.104784     -0.179067     -1.006217
  H      -0.086678      0.961998      0.350832
  F      -1.864960     -0.003845      0.028208
6
Coordinates from ORCA-job neb_MEP_ALL E -600.177150716853
  C      -0.462938     -0.000968      0.007130
  Cl      2.675459      0.005668     -0.041117
  H      -0.099022     -0.784986      0.661481
  H      -0.126196     -0.179268     -1.007809
  H      -0.107722      0.963644      0.351510
  F      -1.879581     -0.004090      0.028805
6
Coordinates from ORCA-job neb_MEP_ALL E -600.173324335993
  C      -0.447879     -0.000921      0.007407
  Cl      2.503612      0.005321     -0.040713
  H      -0.071592     -0.788974      0.665582
  H      -0.095507     -0.179995     -1.012043
  H      -0.079709      0.968481      0.353857
  F      -1.808925     -0.003912      0.025910
6
Coordinates from ORCA-job neb_MEP_ALL E -600.134564299856
  C       0.308438      0.001548     -0.010576
  Cl      2.140610      0.002551     -0.019709
  H      -0.030064     -0.791634      0.657690
  H      -0.035298     -0.179551     -1.029714
  H      -0.031425      0.975489      0.344389
  F      -2.352262     -0.008402      0.057921
6
Coordinates from ORCA-job neb_MEP_ALL E -600.135164790581
  C       0.290734      0.001462     -0.009684
  Cl      2.134625      0.002689     -0.020981
  H      -0.038880     -0.783349      0.652090
  H      -0.046028     -0.178020     -1.018233
  H      -0.040703      0.965230      0.342299
  F      -2.299748     -0.008012      0.054510
6
Coordinates from ORCA-job neb_MEP_ALL E -600.135254749538
  C       0.266899      0.000869     -0.006106
  Cl      2.122692      0.003885     -0.028014
  H      -0.050152     -0.785323      0.658345
  H      -0.069783     -0.179026     -1.013172
  H      -0.056419      0.965271      0.348064
  F      -2.213237     -0.005676      0.040883
6
Coordinates from ORCA-job neb_MEP_ALL E -600.134347483208
  C       0.217755      0.000309     -0.002404
  Cl      2.114030      0.004854     -0.034200
  H      -0.060665     -0.793313      0.669125
  H      -0.090627     -0.181324     -1.017173
  H      -0.070261      0.973320      0.355960
  F      -2.110232     -0.003847      0.028692
6
Coordinates from ORCA-job neb_MEP_ALL E -600.133282539957
  C       0.183711      0.000320     -0.002467
  Cl      2.119672      0.004683     -0.033086
  H      -0.063656     -0.798483      0.672722
  H      -0.091707     -0.182404     -1.025009
  H      -0.072610      0.980006      0.357452
  F      -2.075410     -0.004122      0.030388
6
Coordinates from ORCA-job neb_MEP_ALL E -600.132363872416
  C       0.157841      0.000274     -0.002093
  Cl      2.126963      0.004690     -0.033190
  H      -0.064600     -0.802032      0.675698
  H      -0.092736     -0.183195     -1.029532
  H      -0.073579      0.984356      0.359013
  F      -2.053889     -0.004093      0.030104
6
Coordinates from ORCA-job neb_MEP_ALL E -600.131624456098
  C       0.133719      0.000226     -0.001700
  Cl      2.135169      0.004722     -0.033421
  H      -0.064018     -0.805343      0.678545
  H      -0.092362     -0.183960     -1.033718
  H      -0.073059      0.988402      0.360555
  F      -2.039449     -0.004046      0.029740
6
Coordinates from ORCA-job neb_MEP_ALL E -600.131077628006
  C       0.112080      0.000179     -0.001377
  Cl      2.142942      0.004747     -0.033580
  H      -0.063293     -0.807886      0.680698
  H      -0.091732     -0.184543     -1.036972
  H      -0.072364      0.991518      0.361705
  F      -2.027633     -0.004014      0.029526
6
Coordinates from ORCA-job neb_MEP_ALL E -600.130699142794
  C       0.092622      0.000152     -0.001117
  Cl      2.150088      0.004763     -0.033710
  H      -0.062523     -0.809843      0.682348
  H      -0.091021     -0.184985     -1.039459
  H      -0.071621      0.993903      0.362575
  F      -2.017544     -0.003990      0.029363
6
Coordinates from ORCA-job neb_MEP_ALL E -600.130459560525
  C       0.074439      0.000107     -0.000845
  Cl      2.156818      0.004779     -0.033828
  H      -0.061706     -0.811395      0.683651
  H      -0.090251     -0.185338     -1.041467
  H      -0.070826      0.995815      0.363264
  F      -2.008474     -0.003968      0.029224
6
Coordinates from ORCA-job neb_MEP_ALL E -600.130367628921
  C       0.056104      0.000071     -0.000575
  Cl      2.163656      0.004793     -0.033945
  H      -0.060796     -0.812719      0.684758
  H      -0.089373     -0.185636     -1.043175
  H      -0.069930      0.997443      0.363845
  F      -1.999661     -0.003951      0.029093
6
Coordinates from ORCA-job neb_MEP_ALL E -600.130429903040
  C       0.037270      0.000036     -0.000294
  Cl      2.170752      0.004808     -0.034064
  H      -0.059771     -0.813875      0.685722
  H      -0.088378     -0.185897     -1.044677
  H      -0.068914      0.998864      0.364349
  F      -1.990960     -0.003936      0.028964
6
Coordinates from ORCA-job neb_MEP_ALL E -600.130689349235
  C       0.018586      0.000007     -0.000034
  Cl      2.177776      0.004821     -0.034179
  H      -0.058696     -0.814856      0.686540
  H      -0.087334     -0.186117     -1.045940
  H      -0.067848      1.000066      0.364776
  F      -1.982484     -0.003922      0.028837
6
Coordinates from ORCA-job neb_MEP_ALL E -600.131211295865
  C      -0.001762     -0.000044      0.000254
  Cl      2.185397      0.004835     -0.034304
  H      -0.057478     -0.815739      0.687279
  H      -0.086140     -0.186315     -1.047097
  H      -0.066638      1.001170      0.365166
  F      -1.973378     -0.003908      0.028702
6
Coordinates from ORCA-job neb_MEP_ALL E -600.132158204267
  C      -0.024221     -0.000091      0.000643
  Cl      2.193726      0.004853     -0.034440
  H      -0.056075     -0.816566      0.687960
  H      -0.084787     -0.186512     -1.048232
  H      -0.065252      1.002204      0.365525
  F      -1.963392     -0.003888      0.028544
6
Coordinates from ORCA-job neb_MEP_ALL E -600.134056075456
  C      -0.059717     -0.000219      0.001371
  Cl      2.206600      0.004892     -0.034702
  H      -0.053795     -0.817094      0.688403
  H      -0.082737     -0.186653     -1.048998
  H      -0.063042      1.002905      0.365784
  F      -1.947309     -0.003832      0.028142
6
Coordinates from ORCA-job neb_MEP_ALL E -600.142695954727
  C      -0.131131     -0.000208      0.001696
  Cl      2.231853      0.004923     -0.034994
  H      -0.049518     -0.816533      0.687863
  H      -0.077928     -0.186449     -1.048029
  H      -0.058593      1.002105      0.365405
  F      -1.914683     -0.003837      0.028059
6
Coordinates from ORCA-job neb_MEP_ALL E -600.154083914070
  C      -0.229762     -0.000506      0.004674
  Cl      2.268779      0.005009     -0.035621
  H      -0.044362     -0.812483      0.684374
  H      -0.072509     -0.185787     -1.044399
  H      -0.053352      0.997505      0.363648
  F      -1.868795     -0.003738      0.027324
6
Coordinates from ORCA-job neb_MEP_ALL E -600.162129145133
  C      -0.287572     -0.000104      0.002280
  Cl      2.295357      0.005100     -0.036195
  H      -0.042048     -0.809644      0.682300
  H      -0.071306     -0.184645     -1.037204
  H      -0.051392      0.992907      0.362374
  F      -1.843038     -0.003613      0.026445
6
Coordinates from ORCA-job neb_MEP_ALL E -600.167347553197
  C      -0.332887     -0.001053      0.007704
  Cl      2.323592      0.005147     -0.036420
  H      -0.042529     -0.802480      0.675863
  H      -0.071475     -0.183577     -1.032160
  H      -0.051675      0.985488      0.359161
  F      -1.825026     -0.003525      0.025851
6
Coordinates from ORCA-job neb_MEP_ALL E -600.171063492060
  C      -0.372633     -0.000969      0.005952
  Cl      2.359857      0.005263     -0.036850
  H      -0.043673     -0.793842      0.668259
  H      -0.070233     -0.181265     -1.019625
  H      -0.051939      0.974541      0.354814
  F      -1.821379     -0.003729      0.027450
6
Coordinates from ORCA-job neb_MEP_ALL E -600.173211700573
  C      -0.399168     -0.000571      0.006277
  Cl      2.409901      0.005454     -0.038592
  H      -0.049566     -0.787964      0.663779
  H      -0.074369     -0.179868     -1.011047
  H      -0.057385      0.966726      0.352486
  F      -1.829413     -0.003776      0.027097
6
Coordinates from ORCA-job neb_MEP_ALL E -600.175002361281
  C      -0.423501     -0.001031      0.006744
  Cl      2.480566      0.005562     -0.039156
  H      -0.058166     -0.783927      0.660402
  H      -0.084236     -0.179074     -1.006341
  H      -0.066309      0.962220      0.350906
  F      -1.848353     -0.003750      0.027445
6
Coordinates from ORCA-job neb_MEP_ALL E -600.176547938501
  C      -0.443928     -0.000959      0.006846
  Cl      2.579085      0.005685     -0.039633
  H      -0.078193     -0.783823      0.660068
  H      -0.105462     -0.179059     -1.006551
  H      -0.086662      0.962052      0.350589
  F      -1.864840     -0.003896      0.028681
6
Coordinates from ORCA-job neb_MEP_ALL E -600.177131328165
  C      -0.460635     -0.000972      0.007183
  Cl      2.664609      0.005691     -0.041313
  H      -0.097302     -0.785467      0.661723
  H      -0.123604     -0.179254     -1.007977
  H      -0.105773      0.964112      0.351502
  F      -1.877296     -0.004110      0.028882
6
Coordinates from ORCA-job neb_MEP_ALL E -600.173324335993
  C      -0.447878     -0.000925      0.007422
  Cl      2.503610      0.005342     -0.040793
  H      -0.071564     -0.788974      0.665584
  H      -0.095538     -0.179996     -1.012040
  H      -0.079705      0.968480      0.353859
  F      -1.808924     -0.003927      0.025968
6
Coordinates from ORCA-job neb_MEP_ALL E -600.134564299856
  C       0.308438      0.001548     -0.010576
  Cl      2.140610      0.002551     -0.019709
  H      -0.030064     -0.791634      0.657690
  H      -0.035298     -0.179551     -1.029714
  H      -0.031425      0.975489      0.344389
  F      -2.352262     -0.008402      0.057921
6
Coordinates from ORCA-job neb_MEP_ALL E -600.135186483572
  C       0.289531      0.001454     -0.009620
  Cl      2.133990      0.002679     -0.020952
  H      -0.039888     -0.783368      0.652125
  H      -0.047027     -0.178031     -1.018290
  H      -0.041702      0.965272      0.342331
  F      -2.294904     -0.008005      0.054406
6
Coordinates from ORCA-job neb_MEP_ALL E -600.135237248334
  C       0.264956      0.000776     -0.005568
  Cl      2.122189      0.004049     -0.028940
  H      -0.050404     -0.785658      0.659192
  H      -0.071646     -0.179190     -1.012753
  H      -0.057222      0.965418      0.348829
  F      -2.207873     -0.005394      0.039240
6
Coordinates from ORCA-job neb_MEP_ALL E -600.134191258227
  C       0.213506      0.000278     -0.002175
  Cl      2.113977      0.004891     -0.034502
  H      -0.061159     -0.794002      0.669878
  H      -0.091313     -0.181519     -1.017951
  H      -0.070806      0.974154      0.356465
  F      -2.104204     -0.003802      0.028284
6
Coordinates from ORCA-job neb_MEP_ALL E -600.133205394148
  C       0.182113      0.000346     -0.002629
  Cl      2.119753      0.004618     -0.032689
  H      -0.064322     -0.798589      0.672519
  H      -0.091427     -0.182397     -1.025644
  H      -0.072969      0.980281      0.357188
  F      -2.073149     -0.004259      0.031255
6
Coordinates from ORCA-job neb_MEP_ALL E -600.132380337200
  C       0.158517      0.000287     -0.002200
  Cl      2.126267      0.004643     -0.032913
  H      -0.065199     -0.801916      0.675393
  H      -0.092641     -0.183147     -1.029744
  H      -0.073952      0.984327      0.358742
  F      -2.052992     -0.004194      0.030722
6
Coordinates from ORCA-job neb_MEP_ALL E -600.131654008459
  C       0.134986      0.000224     -0.001751
  Cl      2.134070      0.004687     -0.033209
  H      -0.064527     -0.805195      0.678257
  H      -0.092305     -0.183915     -1.033845
  H      -0.073382      0.988324      0.360324
  F      -2.038842     -0.004125      0.030224
6
Coordinates from ORCA-job neb_MEP_ALL E -600.131102401147
  C       0.113104      0.000165     -0.001365
  Cl      2.141826      0.004717     -0.033402
  H      -0.063759     -0.807754      0.680445
  H      -0.091703     -0.184510     -1.037123
  H      -0.072670      0.991463      0.361508
  F      -2.026798     -0.004081      0.029937
6
Coordinates from ORCA-job neb_MEP_ALL E -600.130706653380
  C       0.093224      0.000114     -0.001024
  Cl      2.149071      0.004737     -0.033558
  H      -0.062946     -0.809722      0.682116
  H      -0.091001     -0.184966     -1.039664
  H      -0.071905      0.993885      0.362406
  F      -2.016442     -0.004048      0.029724
6
Coordinates from ORCA-job neb_MEP_ALL E -600.130453916438
  C       0.074618      0.000060     -0.000689
  Cl      2.155918      0.004756     -0.033695
  H      -0.062087     -0.811290      0.683441
  H      -0.090227     -0.185331     -1.041719
  H      -0.071082      0.995825      0.363115
  F      -2.007140     -0.004020      0.029547
6
Coordinates from ORCA-job neb_MEP_ALL E -600.130372759357
  C       0.055773      0.000003     -0.000334
  Cl      2.162923      0.004772     -0.033831
  H      -0.061126     -0.812633      0.684571
  H      -0.089336     -0.185645     -1.043509
  H      -0.070148      0.997501      0.363721
  F      -1.998085     -0.003998      0.029383
6
Coordinates from ORCA-job neb_MEP_ALL E -600.130448635753
  C       0.036687     -0.000055      0.000016
  Cl      2.170094      0.004790     -0.033966
  H      -0.060067     -0.813783      0.685536
  H      -0.088335     -0.185915     -1.045052
  H      -0.069109      0.998942      0.364239
  F      -1.989271     -0.003979      0.029227
6
Coordinates from ORCA-job neb_MEP_ALL E -600.130710694499
  C       0.018148     -0.000098      0.000328
  Cl      2.177041      0.004806     -0.034094
  H      -0.058983     -0.814744      0.686345
  H      -0.087306     -0.186139     -1.046326
  H      -0.068042      1.000137      0.364671
  F      -1.980858     -0.003961      0.029077
6
Coordinates from ORCA-job neb_MEP_ALL E -600.131213569098
  C      -0.001684     -0.000141      0.000681
  Cl      2.184447      0.004821     -0.034232
  H      -0.057779     -0.815586      0.687052
  H      -0.086147     -0.186339     -1.047473
  H      -0.066853      1.001189      0.365049
  F      -1.971984     -0.003945      0.028923
6
Coordinates from ORCA-job neb_MEP_ALL E -600.132087003676
  C      -0.023254     -0.000168      0.000856
  Cl      2.192439      0.004839     -0.034371
  H      -0.056421     -0.816410      0.687753
  H      -0.084841     -0.186504     -1.048402
  H      -0.065514      1.002166      0.365410
  F      -1.962408     -0.003924      0.028754
6
Coordinates from ORCA-job neb_MEP_ALL E -600.134115425486
  C      -0.059498     -0.000304      0.001778
  Cl      2.205571      0.004881     -0.034658
  H      -0.054050     -0.817136      0.688367
  H      -0.082739     -0.186721     -1.049578
  H      -0.063227      1.003142      0.365776
  F      -1.946057     -0.003862      0.028315
6
Coordinates from ORCA-job neb_MEP_ALL E -600.140651924834
  C      -0.117330     -0.000450      0.002361
  Cl      2.225830      0.004917     -0.034948
  H      -0.050408     -0.816934      0.688149
  H      -0.078722     -0.186660     -1.049387
  H      -0.059461      1.002981      0.365650
  F      -1.919910     -0.003855      0.028175
6
Coordinates from ORCA-job neb_MEP_ALL E -600.153797614249
  C      -0.227736     -0.000733      0.004359
  Cl      2.266920      0.005015     -0.035608
  H      -0.044634     -0.811994      0.683945
  H      -0.072423     -0.185643     -1.043769
  H      -0.053504      0.997140      0.363467
  F      -1.868623     -0.003785      0.027606
6
Coordinates from ORCA-job neb_MEP_ALL E -600.161941381547
  C      -0.286880     -0.000515      0.004293
  Cl      2.293834      0.005120     -0.036269
  H      -0.042186     -0.808760      0.681482
  H      -0.070701     -0.184790     -1.038262
  H      -0.051306      0.992590      0.362154
  F      -1.842761     -0.003645      0.026602
6
Coordinates from ORCA-job neb_MEP_ALL E -600.167466013145
  C      -0.334546     -0.000492      0.004824
  Cl      2.324732      0.005194     -0.036680
  H      -0.042071     -0.803628      0.677184
  H      -0.071907     -0.183476     -1.030766
  H      -0.051581      0.985925      0.359764
  F      -1.824626     -0.003524      0.025674
6
Coordinates from ORCA-job neb_MEP_ALL E -600.171086805871
  C      -0.373151     -0.001132      0.006876
  Cl      2.360519      0.005297     -0.036906
  H      -0.043925     -0.794253      0.668575
  H      -0.070906     -0.181439     -1.020672
  H      -0.052331      0.975211      0.355021
  F      -1.820206     -0.003684      0.027106
6
Coordinates from ORCA-job neb_MEP_ALL E -600.173293943849
  C      -0.400305     -0.000945      0.006559
  Cl      2.411813      0.005552     -0.039153
  H      -0.050384     -0.787623      0.663633
  H      -0.074191     -0.179795     -1.010531
  H      -0.057828      0.966563      0.352561
  F      -1.829104     -0.003752      0.026929
6
Coordinates from ORCA-job neb_MEP_ALL E -600.175129781148
  C      -0.424860     -0.000944      0.007029
  Cl      2.485360      0.005715     -0.040232
  H      -0.059604     -0.783811      0.660718
  H      -0.084460     -0.179072     -1.005557
  H      -0.067430      0.961817      0.351242
  F      -1.849006     -0.003703      0.026801
6
Coordinates from ORCA-job neb_MEP_ALL E -600.176547997130
  C      -0.443875     -0.000993      0.006781
  Cl      2.579043      0.005688     -0.039328
  H      -0.077923     -0.783808      0.659881
  H      -0.105903     -0.179055     -1.006803
  H      -0.086592      0.962113      0.350417
  F      -1.864750     -0.003946      0.029052
6
Coordinates from ORCA-job neb_MEP_ALL E -600.177088959979
  C      -0.458472     -0.000981      0.007227
  Cl      2.655496      0.005729     -0.041501
  H      -0.095778     -0.785622      0.661753
  H      -0.121437     -0.179203     -1.007841
  H      -0.104091      0.964214      0.351430
  F      -1.875719     -0.004137      0.028930
6
Coordinates from ORCA-job neb_MEP_ALL E -600.173324335993
  C      -0.447878     -0.000931      0.007438
  Cl      2.503609      0.005377     -0.040884
  H      -0.071528     -0.788975      0.665587
  H      -0.095573     -0.179997     -1.012037
  H      -0.079706      0.968479      0.353862
  F      -1.808923     -0.003952      0.026034
6
Coordinates from ORCA-job neb_MEP_ALL E -600.134564299856
  C       0.308438      0.001548     -0.010576
  Cl      2.140610      0.002551     -0.019709
  H      -0.030064     -0.791634      0.657690
  H      -0.035298     -0.179551     -1.029714
  H      -0.031425      0.975489      0.344389
  F      -2.352262     -0.008402      0.057921
6
Coordinates from ORCA-job neb_MEP_ALL E -600.135202274779
  C       0.288592      0.001452     -0.009594
  Cl      2.133673      0.002673     -0.020938
  H      -0.040332     -0.783201      0.651996
  H      -0.047465     -0.177995     -1.018079
  H      -0.042141      0.965072      0.342269
  F      -2.292326     -0.008001      0.054347
6
Coordinates from ORCA-job neb_MEP_ALL E -600.135218901024
  C       0.263383      0.000721     -0.005243
  Cl      2.121708      0.004149     -0.029519
  H      -0.050596     -0.785849      0.659707
  H      -0.072824     -0.179284     -1.012447
  H      -0.057750      0.965482      0.349297
  F      -2.203921     -0.005219      0.038204
6
Coordinates from ORCA-job neb_MEP_ALL E -600.134067941559
  C       0.211915      0.000276     -0.002161
  Cl      2.113824      0.004881     -0.034456
  H      -0.061562     -0.794198      0.670007
  H      -0.091524     -0.181562     -1.018304
  H      -0.071141      0.974431      0.356515
  F      -2.101511     -0.003827      0.028398
6
Coordinates from ORCA-job neb_MEP_ALL E -600.133147073416
  C       0.181724      0.000357     -0.002707
  Cl      2.119645      0.004585     -0.032492
  H      -0.064855     -0.798704      0.672477
  H      -0.091548     -0.182404     -1.026006
  H      -0.073367      0.980487      0.357090
  F      -2.071598     -0.004322      0.031638
6
Coordinates from ORCA-job neb_MEP_ALL E -600.132381488620
  C       0.158673      0.000289     -0.002230
  Cl      2.126048      0.004624     -0.032797
  H      -0.065409     -0.802074      0.675442
  H      -0.092578     -0.183177     -1.030111
  H      -0.074071      0.984574      0.358727
  F      -2.052663     -0.004235      0.030970
6
Coordinates from ORCA-job neb_MEP_ALL E -600.131685479407
  C       0.135483      0.000220     -0.001768
  Cl      2.133668      0.004670     -0.033102
  H      -0.064723     -0.805198      0.678183
  H      -0.092249     -0.183912     -1.034009
  H      -0.073495      0.988381      0.360248
  F      -2.038685     -0.004161      0.030448
6
Coordinates from ORCA-job neb_MEP_ALL E -600.131114779343
  C       0.113587      0.000161     -0.001370
  Cl      2.141390      0.004700     -0.033304
  H      -0.063952     -0.807673      0.680305
  H      -0.091662     -0.184489     -1.037172
  H      -0.072790      0.991415      0.361400
  F      -2.026573     -0.004114      0.030140
6
Coordinates from ORCA-job neb_MEP_ALL E -600.130710536603
  C       0.093499      0.000103     -0.001008
  Cl      2.148685      0.004721     -0.033468
  H      -0.063124     -0.809609      0.681953
  H      -0.090959     -0.184940     -1.039677
  H      -0.072015      0.993802      0.362290
  F      -2.016086     -0.004078      0.029910
6
Coordinates from ORCA-job neb_MEP_ALL E -600.130455496233
  C       0.074604      0.000053     -0.000676
  Cl      2.155629      0.004741     -0.033612
  H      -0.062246     -0.811188      0.683291
  H      -0.090175     -0.185305     -1.041729
  H      -0.071175      0.995747      0.363006
  F      -2.006638     -0.004048      0.029720
6
Coordinates from ORCA-job neb_MEP_ALL E -600.130361723340
  C       0.055546      0.000000     -0.000333
  Cl      2.162710      0.004758     -0.033753
  H      -0.061271     -0.812571      0.684457
  H      -0.089276     -0.185626     -1.043545
  H      -0.070230      0.997463      0.363630
  F      -1.997480     -0.004025      0.029544
6
Coordinates from ORCA-job neb_MEP_ALL E -600.130454900412
  C       0.036443     -0.000053     -0.000003
  Cl      2.169884      0.004777     -0.033891
  H      -0.060205     -0.813740      0.685443
  H      -0.088271     -0.185897     -1.045087
  H      -0.069184      0.998918      0.364157
  F      -1.988667     -0.004004      0.029381
6
Coordinates from ORCA-job neb_MEP_ALL E -600.130711242770
  C       0.017873     -0.000101      0.000315
  Cl      2.176836      0.004793     -0.034022
  H      -0.059113     -0.814714      0.686262
  H      -0.087240     -0.186124     -1.046376
  H      -0.068112      1.000131      0.364597
  F      -1.980246     -0.003985      0.029224
6
Coordinates from ORCA-job neb_MEP_ALL E -600.131218076030
  C      -0.001618     -0.000141      0.000649
  Cl      2.184103      0.004809     -0.034160
  H      -0.057924     -0.815551      0.686968
  H      -0.086099     -0.186320     -1.047495
  H      -0.066938      1.001171      0.364973
  F      -1.971524     -0.003968      0.029065
6
Coordinates from ORCA-job neb_MEP_ALL E -600.132050140615
  C      -0.023326     -0.000183      0.000947
  Cl      2.192140      0.004828     -0.034308
  H      -0.056558     -0.816300      0.687603
  H      -0.084784     -0.186486     -1.048440
  H      -0.065589      1.002088      0.365309
  F      -1.961883     -0.003947      0.028889
6
Coordinates from ORCA-job neb_MEP_ALL E -600.134107165930
  C      -0.058359     -0.000256      0.001500
  Cl      2.204862      0.004863     -0.034565
  H      -0.054270     -0.817176      0.688352
  H      -0.082673     -0.186688     -1.049530
  H      -0.063358      1.003153      0.365715
  F      -1.946201     -0.003897      0.028527
6
Coordinates from ORCA-job neb_MEP_ALL E -600.139144965595
  C      -0.110360     -0.000429      0.002527
  Cl      2.223124      0.004907     -0.034895
  H      -0.050879     -0.817285      0.688410
  H      -0.079223     -0.186757     -1.049992
  H      -0.059945      1.003420      0.365771
  F      -1.922717     -0.003856      0.028178
6
Coordinates from ORCA-job neb_MEP_ALL E -600.153528734727
  C      -0.226277     -0.000682      0.003790
  Cl      2.265915      0.004999     -0.035540
  H      -0.044756     -0.812057      0.683967
  H      -0.072420     -0.185552     -1.043356
  H      -0.053587      0.997098      0.363408
  F      -1.868875     -0.003807      0.027731
6
Coordinates from ORCA-job neb_MEP_ALL E -600.161857970698
  C      -0.286409     -0.000916      0.005520
  Cl      2.292664      0.005096     -0.036140
  H      -0.042373     -0.807491      0.680238
  H      -0.069981     -0.184690     -1.038209
  H      -0.051173      0.991699      0.361592
  F      -1.842728     -0.003699      0.026999
6
Coordinates from ORCA-job neb_MEP_ALL E -600.167611946640
  C      -0.335644     -0.000634      0.004888
  Cl      2.324653      0.005211     -0.036797
  H      -0.041765     -0.802907      0.676660
  H      -0.070897     -0.183406     -1.030241
  H      -0.051047      0.985284      0.359623
  F      -1.825299     -0.003548      0.025867
6
Coordinates from ORCA-job neb_MEP_ALL E -600.171110653495
  C      -0.373453     -0.000878      0.006198
  Cl      2.361554      0.005303     -0.036981
  H      -0.043739     -0.795177      0.669532
  H      -0.071587     -0.181563     -1.020973
  H      -0.052481      0.975959      0.355515
  F      -1.820294     -0.003645      0.026710
6
Coordinates from ORCA-job neb_MEP_ALL E -600.173357384694
  C      -0.401319     -0.001133      0.006831
  Cl      2.413046      0.005576     -0.039217
  H      -0.050399     -0.787776      0.663762
  H      -0.074122     -0.179861     -1.010906
  H      -0.057783      0.966918      0.352689
  F      -1.829423     -0.003725      0.026841
6
Coordinates from ORCA-job neb_MEP_ALL E -600.175219608402
  C      -0.425499     -0.000951      0.007200
  Cl      2.488064      0.005781     -0.040730
  H      -0.060694     -0.783874      0.660962
  H      -0.084819     -0.179099     -1.005385
  H      -0.068308      0.961819      0.351460
  F      -1.848744     -0.003676      0.026492
6
Coordinates from ORCA-job neb_MEP_ALL E -600.176547751222
  C      -0.443940     -0.001000      0.006747
  Cl      2.578860      0.005686     -0.039191
  H      -0.077756     -0.783812      0.659815
  H      -0.105962     -0.179053     -1.006897
  H      -0.086485      0.962139      0.350351
  F      -1.864717     -0.003960      0.029175
6
Coordinates from ORCA-job neb_MEP_ALL E -600.177060342989
  C      -0.457079     -0.000982      0.007245
  Cl      2.650029      0.005737     -0.041567
  H      -0.094784     -0.785452      0.661604
  H      -0.120129     -0.179137     -1.007487
  H      -0.103018      0.963974      0.351335
  F      -1.875020     -0.004139      0.028870
6
Coordinates from ORCA-job neb_MEP_ALL E -600.173324335993
  C      -0.447878     -0.000933      0.007440
  Cl      2.503609      0.005385     -0.040894
  H      -0.071523     -0.788976      0.665587
  H      -0.095576     -0.179997     -1.012036
  H      -0.079708      0.968479      0.353863
  F      -1.808923     -0.003958      0.026041
6
Coordinates from ORCA-job neb_MEP_ALL E -600.134564299856
  C       0.308438      0.001548     -0.010576
  Cl      2.140610      0.002551     -0.019709
  H      -0.030064     -0.791634      0.657690
  H      -0.035298     -0.179551     -1.029714
  H      -0.031425      0.975489      0.344389
  F      -2.352262     -0.008402      0.057921
6
Coordinates from ORCA-job neb_MEP_ALL E -600.135201207694
  C       0.286797      0.001451     -0.009567
  Cl      2.133098      0.002665     -0.020924
  H      -0.041036     -0.782795      0.651683
  H      -0.048169     -0.177904     -1.017537
  H      -0.042841      0.964576      0.342116
  F      -2.287850     -0.007992      0.054230
6
Coordinates from ORCA-job neb_MEP_ALL E -600.135203432838
  C       0.259985      0.000627     -0.004671
  Cl      2.120531      0.004336     -0.030615
  H      -0.051080     -0.786269      0.660737
  H      -0.075137     -0.179464     -1.011878
  H      -0.058855      0.965660      0.350208
  F      -2.195445     -0.004890      0.036219
6
Coordinates from ORCA-job neb_MEP_ALL E -600.134016496996
  C       0.210391      0.000302     -0.002328
  Cl      2.113410      0.004813     -0.034042
  H      -0.062487     -0.794292      0.669817
  H      -0.091652     -0.181543     -1.018831
  H      -0.071799      0.974667      0.356263
  F      -2.097864     -0.003947      0.029122
6
Coordinates from ORCA-job neb_MEP_ALL E -600.133121116377
  C       0.181495      0.000376     -0.002824
  Cl      2.119324      0.004535     -0.032203
  H      -0.065844     -0.798950      0.672495
  H      -0.092022     -0.182426     -1.026576
  H      -0.074183      0.980870      0.356993
  F      -2.068770     -0.004405      0.032115
6
Coordinates from ORCA-job neb_MEP_ALL E -600.132380116648
  C       0.158450      0.000295     -0.002278
  Cl      2.125941      0.004599     -0.032646
  H      -0.065559     -0.802496      0.675697
  H      -0.092405     -0.183265     -1.030839
  H      -0.074106      0.985151      0.358813
  F      -2.052321     -0.004285      0.031253
6
Coordinates from ORCA-job neb_MEP_ALL E -600.131688934154
  C       0.135956      0.000228     -0.001836
  Cl      2.133304      0.004642     -0.032926
  H      -0.064923     -0.805249      0.678113
  H      -0.092094     -0.183911     -1.034265
  H      -0.073578      0.988502      0.360152
  F      -2.038666     -0.004212      0.030763
6
Coordinates from ORCA-job neb_MEP_ALL E -600.131117726310
  C       0.114255      0.000173     -0.001450
  Cl      2.140935      0.004668     -0.033128
  H      -0.064189     -0.807525      0.680069
  H      -0.091544     -0.184439     -1.037152
  H      -0.072917      0.991286      0.361213
  F      -2.026540     -0.004163      0.030447
6
Coordinates from ORCA-job neb_MEP_ALL E -600.130706415466
  C       0.093898      0.000116     -0.001093
  Cl      2.148306      0.004691     -0.033295
  H      -0.063357     -0.809402      0.681668
  H      -0.090839     -0.184872     -1.039560
  H      -0.072136      0.993591      0.362074
  F      -2.015872     -0.004125      0.030206
6
Coordinates from ORCA-job neb_MEP_ALL E -600.130466608583
  C       0.074441      0.000074     -0.000779
  Cl      2.155458      0.004711     -0.033445
  H      -0.062453     -0.811011      0.683033
  H      -0.090029     -0.185239     -1.041614
  H      -0.071269      0.995560      0.362802
  F      -2.006148     -0.004095      0.030003
6
Coordinates from ORCA-job neb_MEP_ALL E -600.130366375131
  C       0.055125      0.000033     -0.000479
  Cl      2.162644      0.004729     -0.033588
  H      -0.061465     -0.812461      0.684260
  H      -0.089120     -0.185568     -1.043464
  H      -0.070312      0.997336      0.363454
  F      -1.996872     -0.004070      0.029817
6
Coordinates from ORCA-job neb_MEP_ALL E -600.130452310079
  C       0.036115     -0.000009     -0.000185
  Cl      2.169782      0.004747     -0.033725
  H      -0.060396     -0.813662      0.685273
  H      -0.088111     -0.185840     -1.045005
  H      -0.069262      0.998813      0.363991
  F      -1.988127     -0.004049      0.029651
6
Coordinates from ORCA-job neb_MEP_ALL E -600.130723269978
  C       0.017422     -0.000055      0.000116
  Cl      2.176781      0.004764     -0.033858
  H      -0.059293     -0.814670      0.686122
  H      -0.087061     -0.186070     -1.046314
  H      -0.068176      1.000060      0.364442
  F      -1.979673     -0.004029      0.029492
6
Coordinates from ORCA-job neb_MEP_ALL E -600.131231015896
  C      -0.001555     -0.000095      0.000422
  Cl      2.183837      0.004781     -0.033991
  H      -0.058131     -0.815514      0.686831
  H      -0.085945     -0.186264     -1.047412
  H      -0.067028      1.001103      0.364818
  F      -1.971177     -0.004010      0.029333
6
Coordinates from ORCA-job neb_MEP_ALL E -600.132059165293
  C      -0.024124     -0.000150      0.000782
  Cl      2.192177      0.004800     -0.034149
  H      -0.056722     -0.816222      0.687428
  H      -0.084564     -0.186425     -1.048350
  H      -0.065625      1.001988      0.365136
  F      -1.961141     -0.003991      0.029153
6
Coordinates from ORCA-job neb_MEP_ALL E -600.134038496638
  C      -0.054977     -0.000195      0.001209
  Cl      2.203461      0.004822     -0.034334
  H      -0.054743     -0.816994      0.688072
  H      -0.082539     -0.186605     -1.049400
  H      -0.063633      1.002943      0.365472
  F      -1.947569     -0.003971      0.028981
6
Coordinates from ORCA-job neb_MEP_ALL E -600.138424422539
  C      -0.099292     -0.000324      0.002126
  Cl      2.219322      0.004880     -0.034725
  H      -0.051720     -0.817737      0.688729
  H      -0.080008     -0.186782     -1.050262
  H      -0.060767      1.003833      0.365847
  F      -1.927535     -0.003871      0.028285
6
Coordinates from ORCA-job neb_MEP_ALL E -600.153325619788
  C      -0.223167     -0.000518      0.003220
  Cl      2.264333      0.004965     -0.035382
  H      -0.044972     -0.812492      0.684225
  H      -0.072515     -0.185496     -1.043265
  H      -0.053764      0.997372      0.363377
  F      -1.869916     -0.003831      0.027825
6
Coordinates from ORCA-job neb_MEP_ALL E -600.161796869825
  C      -0.285758     -0.000944      0.005617
  Cl      2.290656      0.005013     -0.035742
  H      -0.042481     -0.806193      0.678786
  H      -0.068749     -0.184359     -1.037205
  H      -0.050849      0.990328      0.360640
  F      -1.842819     -0.003846      0.027904
6
Coordinates from ORCA-job neb_MEP_ALL E -600.167701047943
  C      -0.337853     -0.000929      0.005211
  Cl      2.323603      0.005182     -0.036766
  H      -0.041231     -0.800555      0.674616
  H      -0.068043     -0.183063     -1.028562
  H      -0.049753      0.983034      0.358703
  F      -1.826723     -0.003669      0.026798
6
Coordinates from ORCA-job neb_MEP_ALL E -600.171131994440
  C      -0.373671     -0.000768      0.006007
  Cl      2.363456      0.005290     -0.037156
  H      -0.043359     -0.795939      0.670616
  H      -0.072236     -0.181828     -1.021642
  H      -0.052503      0.976781      0.356328
  F      -1.821687     -0.003536      0.025846
6
Coordinates from ORCA-job neb_MEP_ALL E -600.173399915525
  C      -0.402962     -0.001155      0.006816
  Cl      2.415592      0.005560     -0.038972
  H      -0.049918     -0.788533      0.664352
  H      -0.074407     -0.180043     -1.011846
  H      -0.057532      0.967832      0.352998
  F      -1.830774     -0.003662      0.026651
6
Coordinates from ORCA-job neb_MEP_ALL E -600.175276964839
  C      -0.426244     -0.001011      0.007417
  Cl      2.492766      0.005854     -0.041388
  H      -0.062843     -0.784207      0.661512
  H      -0.085704     -0.179183     -1.005446
  H      -0.070059      0.962167      0.351882
  F      -1.847916     -0.003620      0.026024
6
Coordinates from ORCA-job neb_MEP_ALL E -600.176543068133
  C      -0.444088     -0.000994      0.006703
  Cl      2.578270      0.005666     -0.038996
  H      -0.077496     -0.783813      0.659747
  H      -0.105786     -0.179048     -1.006960
  H      -0.086232      0.962143      0.350278
  F      -1.864668     -0.003954      0.029228
6
Coordinates from ORCA-job neb_MEP_ALL E -600.177029177500
  C      -0.454813     -0.000980      0.007267
  Cl      2.639944      0.005718     -0.041599
  H      -0.092793     -0.784938      0.661239
  H      -0.117653     -0.179006     -1.006676
  H      -0.100896      0.963316      0.351165
  F      -1.873789     -0.004111      0.028605
6
Coordinates from ORCA-job neb_MEP_ALL E -600.173324335993
  C      -0.447878     -0.000930      0.007428
  Cl      2.503610      0.005370     -0.040827
  H      -0.071546     -0.788975      0.665585
  H      -0.095550     -0.179997     -1.012039
  H      -0.079711      0.968479      0.353861
  F      -1.808924     -0.003947      0.025993
6
Coordinates from ORCA-job neb_MEP_ALL E -600.134564299856
  C       0.308438      0.001548     -0.010576
  Cl      2.140610      0.002551     -0.019709
  H      -0.030064     -0.791634      0.657690
  H      -0.035298     -0.179551     -1.029714
  H      -0.031425      0.975489      0.344389
  F      -2.352262     -0.008402      0.057921
6
Coordinates from ORCA-job neb_MEP_ALL E -600.135226041079
  C       0.285368      0.001453     -0.009558
  Cl      2.132403      0.002656     -0.020918
  H      -0.041826     -0.782555      0.651518
  H      -0.048970     -0.177849     -1.017184
  H      -0.043628      0.964277      0.342046
  F      -2.283347     -0.007982      0.054096
6
Coordinates from ORCA-job neb_MEP_ALL E -600.135164670059
  C       0.256299      0.000541     -0.004145
  Cl      2.119031      0.004518     -0.031705
  H      -0.051825     -0.786851      0.661910
  H      -0.077676     -0.179670     -1.011452
  H      -0.060205      0.966021      0.351191
  F      -2.185624     -0.004559      0.034200
6
Coordinates from ORCA-job neb_MEP_ALL E -600.133954452766
  C       0.210223      0.000358     -0.002683
  Cl      2.112988      0.004698     -0.033309
  H      -0.063593     -0.794179      0.669261
  H      -0.091558     -0.181441     -1.019303
  H      -0.072509      0.974700      0.355705
  F      -2.095552     -0.004136      0.030329
6
Coordinates from ORCA-job neb_MEP_ALL E -600.133079817013
  C       0.181176      0.000391     -0.002899
  Cl      2.119111      0.004504     -0.032033
  H      -0.066417     -0.799120      0.672547
  H      -0.092378     -0.182441     -1.026876
  H      -0.074675      0.981108      0.356964
  F      -2.066818     -0.004442      0.032296
6
Coordinates from ORCA-job neb_MEP_ALL E -600.132368204888
  C       0.157585      0.000309     -0.002342
  Cl      2.126153      0.004583     -0.032540
  H      -0.065456     -0.802716      0.675834
  H      -0.092138     -0.183304     -1.031176
  H      -0.073940      0.985436      0.358854
  F      -2.052204     -0.004307      0.031371
6
Coordinates from ORCA-job neb_MEP_ALL E -600.131699006532
  C       0.135887      0.000252     -0.001952
  Cl      2.133364      0.004614     -0.032765
  H      -0.064966     -0.805217      0.678002
  H      -0.091891     -0.183883     -1.034298
  H      -0.073542      0.988478      0.360038
  F      -2.038852     -0.004244      0.030974
6
Coordinates from ORCA-job neb_MEP_ALL E -600.131132700468
  C       0.114638      0.000204     -0.001597
  Cl      2.140876      0.004635     -0.032951
  H      -0.064308     -0.807390      0.679862
  H      -0.091390     -0.184380     -1.037035
  H      -0.072952      0.991129      0.361040
  F      -2.026864     -0.004200      0.030681
6
Coordinates from ORCA-job neb_MEP_ALL E -600.130711579890
  C       0.094140      0.000155     -0.001267
  Cl      2.148317      0.004659     -0.033112
  H      -0.063494     -0.809273      0.681465
  H      -0.090690     -0.184809     -1.039428
  H      -0.072181      0.993432      0.361896
  F      -2.016093     -0.004164      0.030446
6
Coordinates from ORCA-job neb_MEP_ALL E -600.130458043254
  C       0.074233      0.000116     -0.000968
  Cl      2.155655      0.004678     -0.033260
  H      -0.062576     -0.810932      0.682869
  H      -0.089859     -0.185184     -1.041526
  H      -0.071296      0.995456      0.362641
  F      -2.006157     -0.004134      0.030243
6
Coordinates from ORCA-job neb_MEP_ALL E -600.130362721531
  C       0.054779      0.000078     -0.000682
  Cl      2.162905      0.004696     -0.033401
  H      -0.061586     -0.812409      0.684117
  H      -0.088939     -0.185515     -1.043395
  H      -0.070333      0.997259      0.363301
  F      -1.996826     -0.004109      0.030060
6
Coordinates from ORCA-job neb_MEP_ALL E -600.130454284122
  C       0.035904      0.000047     -0.000421
  Cl      2.169998      0.004712     -0.033531
  H      -0.060519     -0.813620      0.685137
  H      -0.087922     -0.185784     -1.044920
  H      -0.069283      0.998734      0.363835
  F      -1.988178     -0.004089      0.029900
6
Coordinates from ORCA-job neb_MEP_ALL E -600.130730086067
  C       0.017110      0.000002     -0.000123
  Cl      2.177041      0.004729     -0.033660
  H      -0.059408     -0.814641      0.685992
  H      -0.086850     -0.186015     -1.046244
  H      -0.068183      0.999996      0.364287
  F      -1.979712     -0.004071      0.029748
6
Coordinates from ORCA-job neb_MEP_ALL E -600.131222576472
  C      -0.001747     -0.000035      0.000123
  Cl      2.184051      0.004747     -0.033787
  H      -0.058253     -0.815510      0.686717
  H      -0.085729     -0.186203     -1.047315
  H      -0.067037      1.001054      0.364665
  F      -1.971285     -0.004052      0.029596
6
Coordinates from ORCA-job neb_MEP_ALL E -600.132087885337
  C      -0.024962     -0.000110      0.000736
  Cl      2.192611      0.004768     -0.033949
  H      -0.056808     -0.816199      0.687279
  H      -0.084306     -0.186397     -1.048457
  H      -0.065591      1.001970      0.364975
  F      -1.960944     -0.004032      0.029416
6
Coordinates from ORCA-job neb_MEP_ALL E -600.133805311649
  C      -0.050816     -0.000063      0.000355
  Cl      2.202109      0.004779     -0.034061
  H      -0.055204     -0.816983      0.687944
  H      -0.082510     -0.186462     -1.048874
  H      -0.063928      1.002764      0.365257
  F      -1.949652     -0.004035      0.029379
6
Coordinates from ORCA-job neb_MEP_ALL E -600.137359691804
  C      -0.089914     -0.000222      0.002062
  Cl      2.216428      0.004831     -0.034431
  H      -0.052584     -0.817363      0.688269
  H      -0.080353     -0.186696     -1.050120
  H      -0.061454      1.003390      0.365503
  F      -1.932123     -0.003939      0.028717
6
Coordinates from ORCA-job neb_MEP_ALL E -600.152881295338
  C      -0.219449     -0.000443      0.003168
  Cl      2.263173      0.004933     -0.035223
  H      -0.045236     -0.813063      0.684585
  H      -0.072766     -0.185548     -1.043806
  H      -0.054011      0.997957      0.363445
  F      -1.871710     -0.003836      0.027832
6
Coordinates from ORCA-job neb_MEP_ALL E -600.161697553491
  C      -0.285497     -0.000981      0.005222
  Cl      2.289915      0.004955     -0.035442
  H      -0.042451     -0.806455      0.678730
  H      -0.068349     -0.184235     -1.037184
  H      -0.050665      0.990624      0.360394
  F      -1.842953     -0.003909      0.028280
6
Coordinates from ORCA-job neb_MEP_ALL E -600.167850967209
  C      -0.339726     -0.000796      0.005686
  Cl      2.322078      0.005098     -0.036431
  H      -0.040932     -0.798860      0.672753
  H      -0.065505     -0.182717     -1.027541
  H      -0.048779      0.981152      0.357492
  F      -1.827136     -0.003878      0.028041
6
Coordinates from ORCA-job neb_MEP_ALL E -600.171166245974
  C      -0.374769     -0.000635      0.005194
  Cl      2.364333      0.005253     -0.037309
  H      -0.042902     -0.794954      0.670149
  H      -0.071284     -0.181676     -1.020163
  H      -0.051951      0.975560      0.356296
  F      -1.823426     -0.003548      0.025833
6
Coordinates from ORCA-job neb_MEP_ALL E -600.173474808382
  C      -0.403519     -0.001079      0.007056
  Cl      2.418460      0.005504     -0.038530
  H      -0.049457     -0.788826      0.664581
  H      -0.075305     -0.180217     -1.012625
  H      -0.057519      0.968204      0.353156
  F      -1.832659     -0.003586      0.026361
6
Coordinates from ORCA-job neb_MEP_ALL E -600.175356812902
  C      -0.426355     -0.001056      0.007419
  Cl      2.497111      0.005887     -0.041787
  H      -0.064698     -0.784754      0.662142
  H      -0.086675     -0.179285     -1.005778
  H      -0.071623      0.962779      0.352288
  F      -1.847761     -0.003571      0.025716
6
Coordinates from ORCA-job neb_MEP_ALL E -600.176537163674
  C      -0.444056     -0.000978      0.006700
  Cl      2.577354      0.005652     -0.038972
  H      -0.077359     -0.783795      0.659744
  H      -0.105370     -0.179039     -1.006866
  H      -0.085995      0.962083      0.350275
  F      -1.864574     -0.003924      0.029119
6
Coordinates from ORCA-job neb_MEP_ALL E -600.176991086343
  C      -0.453365     -0.000975      0.007295
  Cl      2.629859      0.005684     -0.041613
  H      -0.090587     -0.784502      0.661024
  H      -0.115116     -0.178930     -1.006063
  H      -0.098597      0.962788      0.351131
  F      -1.872194     -0.004064      0.028225
6
Coordinates from ORCA-job neb_MEP_ALL E -600.173324335993
  C      -0.447879     -0.000925      0.007412
  Cl      2.503611      0.005341     -0.040737
  H      -0.071579     -0.788974      0.665582
  H      -0.095516     -0.179996     -1.012042
  H      -0.079713      0.968480      0.353858
  F      -1.808925     -0.003926      0.025928
6
Coordinates from ORCA-job neb_MEP_ALL E -600.134564299856
  C       0.308438      0.001548     -0.010576
  Cl      2.140610      0.002551     -0.019709
  H      -0.030064     -0.791634      0.657690
  H      -0.035298     -0.179551     -1.029714
  H      -0.031425      0.975489      0.344389
  F      -2.352262     -0.008402      0.057921
6
Coordinates from ORCA-job neb_MEP_ALL E -600.135237481459
  C       0.283144      0.001454     -0.009517
  Cl      2.130985      0.002643     -0.020929
  H      -0.043438     -0.782356      0.651436
  H      -0.050645     -0.177811     -1.016846
  H      -0.045250      0.964027      0.342046
  F      -2.274795     -0.007957      0.053810
6
Coordinates from ORCA-job neb_MEP_ALL E -600.135110232521
  C       0.249234      0.000380     -0.003143
  Cl      2.115968      0.004839     -0.033656
  H      -0.053577     -0.788026      0.664135
  H      -0.082644     -0.180071     -1.010866
  H      -0.063039      0.966839      0.353024
  F      -2.165943     -0.003961      0.030507
6
Coordinates from ORCA-job neb_MEP_ALL E -600.133925113206
  C       0.210804      0.000475     -0.003442
  Cl      2.112390      0.004449     -0.031705
  H      -0.065652     -0.793773      0.667917
  H      -0.091131     -0.181189     -1.020133
  H      -0.073748      0.974579      0.354423
  F      -2.092662     -0.004541      0.032941
6
Coordinates from ORCA-job neb_MEP_ALL E -600.133046171515
  C       0.180319      0.000406     -0.002948
  Cl      2.118993      0.004472     -0.031866
  H      -0.066810     -0.799259      0.672607
  H      -0.092708     -0.182448     -1.027069
  H      -0.075022      0.981292      0.356954
  F      -2.064773     -0.004463      0.032322
6
Coordinates from ORCA-job neb_MEP_ALL E -600.132344031258
  C       0.155514      0.000321     -0.002399
  Cl      2.126927      0.004558     -0.032384
  H      -0.065109     -0.802932      0.675958
  H      -0.091657     -0.183341     -1.031518
  H      -0.073538      0.985719      0.358883
  F      -2.052138     -0.004324      0.031460
6
Coordinates from ORCA-job neb_MEP_ALL E -600.131701752030
  C       0.135235      0.000284     -0.002103
  Cl      2.133956      0.004565     -0.032492
  H      -0.064919     -0.805136      0.677801
  H      -0.091529     -0.183834     -1.034324
  H      -0.073401      0.988410      0.359846
  F      -2.039342     -0.004289      0.031272
6
Coordinates from ORCA-job neb_MEP_ALL E -600.131146732649
  C       0.114997      0.000246     -0.001798
  Cl      2.141227      0.004578     -0.032636
  H      -0.064402     -0.807199      0.679544
  H      -0.091106     -0.184295     -1.036927
  H      -0.072932      0.990927      0.360768
  F      -2.027784     -0.004257      0.031048
6
Coordinates from ORCA-job neb_MEP_ALL E -600.130719399137
  C       0.094417      0.000204     -0.001498
  Cl      2.148758      0.004600     -0.032776
  H      -0.063632     -0.809125      0.681169
  H      -0.090412     -0.184727     -1.039364
  H      -0.072184      0.993276      0.361624
  F      -2.016948     -0.004227      0.030844
6
Coordinates from ORCA-job neb_MEP_ALL E -600.130455162548
  C       0.073861      0.000163     -0.001196
  Cl      2.156384      0.004618     -0.032916
  H      -0.062702     -0.810860      0.682628
  H      -0.089546     -0.185117     -1.041567
  H      -0.071277      0.995398      0.362394
  F      -2.006719     -0.004202      0.030657
6
Coordinates from ORCA-job neb_MEP_ALL E -600.130364426760
  C       0.054273      0.000131     -0.000932
  Cl      2.163711      0.004635     -0.033047
  H      -0.061715     -0.812351      0.683882
  H      -0.088604     -0.185447     -1.043442
  H      -0.070308      0.997211      0.363049
  F      -1.997357     -0.004179      0.030490
6
Coordinates from ORCA-job neb_MEP_ALL E -600.130458629123
  C       0.035623      0.000098     -0.000667
  Cl      2.170732      0.004649     -0.033166
  H      -0.060654     -0.813544      0.684876
  H      -0.087573     -0.185711     -1.044961
  H      -0.069256      0.998671      0.363567
  F      -1.988872     -0.004163      0.030349
6
Coordinates from ORCA-job neb_MEP_ALL E -600.130737695310
  C       0.016710      0.000068     -0.000414
  Cl      2.177837      0.004665     -0.033283
  H      -0.059537     -0.814582      0.685736
  H      -0.086460     -0.185936     -1.046267
  H      -0.068136      0.999933      0.364008
  F      -1.980413     -0.004148      0.030220
6
Coordinates from ORCA-job neb_MEP_ALL E -600.131225799643
  C      -0.002388      0.000015     -0.000084
  Cl      2.184950      0.004683     -0.033401
  H      -0.058369     -0.815445      0.686441
  H      -0.085307     -0.186134     -1.047418
  H      -0.066968      1.001011      0.364375
  F      -1.971919     -0.004130      0.030086
6
Coordinates from ORCA-job neb_MEP_ALL E -600.132127195326
  C      -0.025993     -0.000015     -0.000054
  Cl      2.193629      0.004705     -0.033539
  H      -0.056913     -0.816353      0.687196
  H      -0.083817     -0.186283     -1.048280
  H      -0.065494      1.002059      0.364744
  F      -1.961412     -0.004112      0.029933
6
Coordinates from ORCA-job neb_MEP_ALL E -600.133533412450
  C      -0.042824     -0.000214      0.001738
  Cl      2.199869      0.004714     -0.033633
  H      -0.055928     -0.816238      0.686981
  H      -0.082645     -0.186493     -1.049742
  H      -0.064431      1.002357      0.364704
  F      -1.954041     -0.004125      0.029952
6
Coordinates from ORCA-job neb_MEP_ALL E -600.136500435698
  C      -0.074092      0.000027     -0.000750
  Cl      2.211703      0.004735     -0.033779
  H      -0.054024     -0.817508      0.688183
  H      -0.080760     -0.186311     -1.048544
  H      -0.062545      1.003156      0.365136
  F      -1.940282     -0.004099      0.029755
6
Coordinates from ORCA-job neb_MEP_ALL E -600.152342562331
  C      -0.211650     -0.000341      0.003637
  Cl      2.261299      0.004873     -0.034803
  H      -0.045909     -0.813613      0.684787
  H      -0.073182     -0.185658     -1.044954
  H      -0.054581      0.998610      0.363369
  F      -1.875977     -0.003871      0.027964
6
Coordinates from ORCA-job neb_MEP_ALL E -600.161634519908
  C      -0.284751     -0.000224      0.003624
  Cl      2.290176      0.004862     -0.034953
  H      -0.042461     -0.807904      0.679608
  H      -0.068591     -0.184101     -1.036998
  H      -0.050785      0.991345      0.360271
  F      -1.843588     -0.003979      0.028449
6
Coordinates from ORCA-job neb_MEP_ALL E -600.167953821940
  C      -0.342943     -0.001169      0.005247
  Cl      2.320663      0.004925     -0.035559
  H      -0.040622     -0.797614      0.670845
  H      -0.062679     -0.182126     -1.026368
  H      -0.047570      0.980123      0.356012
  F      -1.826849     -0.004140      0.029823
6
Coordinates from ORCA-job neb_MEP_ALL E -600.171258459238
  C      -0.378546     -0.000721      0.006291
  Cl      2.365039      0.005147     -0.037299
  H      -0.042383     -0.791672      0.667477
  H      -0.067685     -0.181321     -1.018230
  H      -0.050546      0.972276      0.355161
  F      -1.825878     -0.003708      0.026599
6
Coordinates from ORCA-job neb_MEP_ALL E -600.173550629492
  C      -0.404628     -0.000769      0.006231
  Cl      2.423583      0.005367     -0.037534
  H      -0.048609     -0.788761      0.664604
  H      -0.077104     -0.180306     -1.012569
  H      -0.057570      0.967958      0.353232
  F      -1.835672     -0.003490      0.026035
6
Coordinates from ORCA-job neb_MEP_ALL E -600.175428877833
  C      -0.426294     -0.001109      0.007517
  Cl      2.504759      0.005908     -0.042118
  H      -0.067597     -0.785728      0.663151
  H      -0.088453     -0.179496     -1.006673
  H      -0.074153      0.963913      0.352906
  F      -1.848262     -0.003487      0.025218
6
Coordinates from ORCA-job neb_MEP_ALL E -600.176531372871
  C      -0.443712     -0.000966      0.006725
  Cl      2.575206      0.005649     -0.039085
  H      -0.077295     -0.783796      0.659876
  H      -0.104304     -0.179033     -1.006564
  H      -0.085606      0.961989      0.350393
  F      -1.864289     -0.003843      0.028654
6
Coordinates from ORCA-job neb_MEP_ALL E -600.176931974312
  C      -0.450918     -0.000969      0.007333
  Cl      2.610746      0.005612     -0.041546
  H      -0.086344     -0.783806      0.660806
  H      -0.110356     -0.178854     -1.005167
  H      -0.094217      0.961981      0.351222
  F      -1.868911     -0.003965      0.027352
6
Coordinates from ORCA-job neb_MEP_ALL E -600.173324335993
  C      -0.447879     -0.000914      0.007365
  Cl      2.503616      0.005282     -0.040478
  H      -0.071666     -0.788972      0.665576
  H      -0.095415     -0.179994     -1.012052
  H      -0.079727      0.968482      0.353849
  F      -1.808928     -0.003883      0.025741
6
Coordinates from ORCA-job neb_MEP_ALL E -600.134564299856
  C       0.308438      0.001548     -0.010576
  Cl      2.140610      0.002551     -0.019709
  H      -0.030064     -0.791634      0.657690
  H      -0.035298     -0.179551     -1.029714
  H      -0.031425      0.975489      0.344389
  F      -2.352262     -0.008402      0.057921
6
Coordinates from ORCA-job neb_MEP_ALL E -600.135256674953
  C       0.282684      0.001451     -0.009481
  Cl      2.130320      0.002640     -0.020953
  H      -0.044250     -0.782556      0.651653
  H      -0.051523     -0.177863     -1.017065
  H      -0.046079      0.964271      0.342188
  F      -2.271152     -0.007943      0.053658
6
Coordinates from ORCA-job neb_MEP_ALL E -600.134967870820
  C       0.246494      0.000322     -0.002784
  Cl      2.114702      0.004939     -0.034282
  H      -0.054589     -0.788533      0.664970
  H      -0.084698     -0.180230     -1.010832
  H      -0.064398      0.967263      0.353683
  F      -2.157511     -0.003762      0.029245
6
Coordinates from ORCA-job neb_MEP_ALL E -600.133899124440
  C       0.211168      0.000523     -0.003745
  Cl      2.112427      0.004346     -0.031038
  H      -0.066295     -0.793588      0.667355
  H      -0.090832     -0.181087     -1.020454
  H      -0.074079      0.974509      0.353899
  F      -2.092389     -0.004702      0.033983
6
Coordinates from ORCA-job neb_MEP_ALL E -600.133001923521
  C       0.179620      0.000400     -0.002905
  Cl      2.119277      0.004477     -0.031899
  H      -0.066366     -0.799182      0.672594
  H      -0.092440     -0.182439     -1.026906
  H      -0.074625      0.981182      0.356974
  F      -2.065466     -0.004439      0.032142
6
Coordinates from ORCA-job neb_MEP_ALL E -600.132297596740
  C       0.154523      0.000326     -0.002411
  Cl      2.127467      0.004546     -0.032321
  H      -0.064952     -0.802798      0.675827
  H      -0.091508     -0.183304     -1.031348
  H      -0.073388      0.985551      0.358799
  F      -2.052142     -0.004321      0.031454
6
Coordinates from ORCA-job neb_MEP_ALL E -600.131694489959
  C       0.134662      0.000293     -0.002140
  Cl      2.134484      0.004545     -0.032390
  H      -0.064857     -0.805090      0.677718
  H      -0.091416     -0.183811     -1.034301
  H      -0.073329      0.988362      0.359773
  F      -2.039542     -0.004299      0.031339
6
Coordinates from ORCA-job neb_MEP_ALL E -600.131156857484
  C       0.114872      0.000252     -0.001841
  Cl      2.141654      0.004557     -0.032513
  H      -0.064375     -0.807208      0.679497
  H      -0.091001     -0.184285     -1.037002
  H      -0.072879      0.990957      0.360708
  F      -2.028271     -0.004273      0.031152
6
Coordinates from ORCA-job neb_MEP_ALL E -600.130734125012
  C       0.094392      0.000210     -0.001537
  Cl      2.149186      0.004577     -0.032643
  H      -0.063621     -0.809182      0.681154
  H      -0.090307     -0.184729     -1.039521
  H      -0.072141      0.993371      0.361579
  F      -2.017509     -0.004247      0.030968
6
Coordinates from ORCA-job neb_MEP_ALL E -600.130459129395
  C       0.073793      0.000163     -0.001219
  Cl      2.156846      0.004594     -0.032776
  H      -0.062696     -0.810933      0.682621
  H      -0.089436     -0.185125     -1.041775
  H      -0.071235      0.995526      0.362353
  F      -2.007271     -0.004225      0.030794
6
Coordinates from ORCA-job neb_MEP_ALL E -600.130373534863
  C       0.054216      0.000119     -0.000913
  Cl      2.164176      0.004611     -0.032902
  H      -0.061710     -0.812386      0.683835
  H      -0.088488     -0.185453     -1.043649
  H      -0.070264      0.997312      0.362991
  F      -1.997928     -0.004203      0.030638
6
Coordinates from ORCA-job neb_MEP_ALL E -600.130467024387
  C       0.035562      0.000078     -0.000620
  Cl      2.171205      0.004624     -0.033016
  H      -0.060650     -0.813552      0.684803
  H      -0.087450     -0.185715     -1.045169
  H      -0.069210      0.998753      0.363495
  F      -1.989457     -0.004189      0.030508
6
Coordinates from ORCA-job neb_MEP_ALL E -600.130753781437
  C       0.016694      0.000042     -0.000342
  Cl      2.178300      0.004639     -0.033129
  H      -0.059536     -0.814561      0.685633
  H      -0.086333     -0.185938     -1.046472
  H      -0.068091      0.999992      0.363921
  F      -1.981035     -0.004175      0.030388
6
Coordinates from ORCA-job neb_MEP_ALL E -600.131244345231
  C      -0.002838      0.000001     -0.000049
  Cl      2.185591      0.004657     -0.033244
  H      -0.058346     -0.815444      0.686353
  H      -0.085142     -0.186132     -1.047612
  H      -0.066895      1.001077      0.364288
  F      -1.972370     -0.004159      0.030263
6
Coordinates from ORCA-job neb_MEP_ALL E -600.132165058582
  C      -0.025504     -0.000050      0.000334
  Cl      2.193935      0.004679     -0.033379
  H      -0.056936     -0.816245      0.686994
  H      -0.083719     -0.186314     -1.048680
  H      -0.065472      1.002069      0.364614
  F      -1.962304     -0.004140      0.030117
6
Coordinates from ORCA-job neb_MEP_ALL E -600.133046304703
  C      -0.040279     -0.000013     -0.000245
  Cl      2.199355      0.004689     -0.033434
  H      -0.056067     -0.816868      0.687516
  H      -0.082745     -0.186320     -1.048739
  H      -0.064563      1.002651      0.364818
  F      -1.955702     -0.004140      0.030084
6
Coordinates from ORCA-job neb_MEP_ALL E -600.135178830442
  C      -0.069047     -0.000261      0.001975
  Cl      2.210168      0.004702     -0.033567
  H      -0.054439     -0.816453      0.687024
  H      -0.080784     -0.186508     -1.050182
  H      -0.062809      1.002679      0.364641
  F      -1.943089     -0.004158      0.030109
6
Coordinates from ORCA-job neb_MEP_ALL E -600.151232077576
  C      -0.207994     -0.000447      0.003249
  Cl      2.260645      0.004862     -0.034681
  H      -0.046228     -0.813725      0.684812
  H      -0.073356     -0.185633     -1.045046
  H      -0.054827      0.998858      0.363359
  F      -1.878240     -0.003916      0.028308
6
Coordinates from ORCA-job neb_MEP_ALL E -600.161527796362
  C      -0.284276     -0.000323      0.003694
  Cl      2.291543      0.004889     -0.035009
  H      -0.042579     -0.808744      0.680346
  H      -0.069411     -0.184255     -1.037808
  H      -0.051092      0.992359      0.360674
  F      -1.844185     -0.003926      0.028102
6
Coordinates from ORCA-job neb_MEP_ALL E -600.168133740160
  C      -0.343839     -0.000479      0.004517
  Cl      2.322100      0.004877     -0.035274
  H      -0.040771     -0.798908      0.671583
  H      -0.063699     -0.182071     -1.026628
  H      -0.048083      0.980795      0.355865
  F      -1.825708     -0.004214      0.029937
6
Coordinates from ORCA-job neb_MEP_ALL E -600.171451724763
  C      -0.380852     -0.000992      0.006108
  Cl      2.364567      0.005095     -0.037141
  H      -0.042328     -0.790179      0.665847
  H      -0.065681     -0.180887     -1.016768
  H      -0.049816      0.970849      0.354152
  F      -1.825888     -0.003885      0.027802
6
Coordinates from ORCA-job neb_MEP_ALL E -600.173697865359
  C      -0.405269     -0.000763      0.006352
  Cl      2.425518      0.005318     -0.037289
  H      -0.048673     -0.787652      0.663718
  H      -0.077580     -0.180195     -1.011832
  H      -0.057789      0.966802      0.352871
  F      -1.836208     -0.003509      0.026180
6
Coordinates from ORCA-job neb_MEP_ALL E -600.175554132833
  C      -0.426305     -0.001062      0.007419
  Cl      2.507423      0.005906     -0.042099
  H      -0.068034     -0.785980      0.663366
  H      -0.089100     -0.179547     -1.006899
  H      -0.074662      0.964160      0.353009
  F      -1.849322     -0.003477      0.025203
6
Coordinates from ORCA-job neb_MEP_ALL E -600.176509537061
  C      -0.443286     -0.000979      0.006806
  Cl      2.574014      0.005684     -0.039418
  H      -0.077394     -0.783846      0.660056
  H      -0.103785     -0.179045     -1.006390
  H      -0.085515      0.961993      0.350552
  F      -1.864034     -0.003807      0.028393
6
Coordinates from ORCA-job neb_MEP_ALL E -600.176812768355
  C      -0.450089     -0.000971      0.007364
  Cl      2.602906      0.005599     -0.041623
  H      -0.084595     -0.783774      0.660968
  H      -0.108555     -0.178896     -1.005165
  H      -0.092464      0.961977      0.351419
  F      -1.867203     -0.003936      0.027037
6
Coordinates from ORCA-job neb_MEP_ALL E -600.173324335993
  C      -0.447879     -0.000913      0.007365
  Cl      2.503616      0.005276     -0.040477
  H      -0.071669     -0.788972      0.665576
  H      -0.095415     -0.179994     -1.012052
  H      -0.079725      0.968482      0.353848
  F      -1.808928     -0.003879      0.025740
6
Coordinates from ORCA-job neb_MEP_ALL E -600.134564299856
  C       0.308438      0.001548     -0.010576
  Cl      2.140610      0.002551     -0.019709
  H      -0.030064     -0.791634      0.657690
  H      -0.035298     -0.179551     -1.029714
  H      -0.031425      0.975489      0.344389
  F      -2.352262     -0.008402      0.057921
6
Coordinates from ORCA-job neb_MEP_ALL E -600.135265429209
  C       0.282640      0.001448     -0.009445
  Cl      2.129968      0.002640     -0.020981
  H      -0.044741     -0.782797      0.651891
  H      -0.052080     -0.177925     -1.017353
  H      -0.046590      0.964566      0.342335
  F      -2.269196     -0.007932      0.053554
6
Coordinates from ORCA-job neb_MEP_ALL E -600.134895613774
  C       0.245268      0.000302     -0.002655
  Cl      2.114164      0.004958     -0.034417
  H      -0.055307     -0.788738      0.665244
  H      -0.085658     -0.180288     -1.010945
  H      -0.065192      0.967476      0.353883
  F      -2.153275     -0.003710      0.028890
6
Coordinates from ORCA-job neb_MEP_ALL E -600.133900272199
  C       0.211083      0.000537     -0.003835
  Cl      2.112717      0.004307     -0.030790
  H      -0.066331     -0.793535      0.667173
  H      -0.090597     -0.181060     -1.020596
  H      -0.074021      0.974505      0.353730
  F      -2.092850     -0.004754      0.034318
6
Coordinates from ORCA-job neb_MEP_ALL E -600.133001387092
  C       0.179024      0.000389     -0.002844
  Cl      2.119708      0.004489     -0.031970
  H      -0.065770     -0.799099      0.672589
  H      -0.092036     -0.182435     -1.026739
  H      -0.074091      0.981063      0.357010
  F      -2.066836     -0.004408      0.031955
6
Coordinates from ORCA-job neb_MEP_ALL E -600.132282070348
  C       0.154101      0.000324     -0.002399
  Cl      2.127869      0.004535     -0.032275
  H      -0.064938     -0.802666      0.675700
  H      -0.091518     -0.183271     -1.031197
  H      -0.073392      0.985394      0.358721
  F      -2.052122     -0.004317      0.031449
6
Coordinates from ORCA-job neb_MEP_ALL E -600.131679062686
  C       0.134233      0.000287     -0.002119
  Cl      2.134913      0.004534     -0.032339
  H      -0.064826     -0.805114      0.677720
  H      -0.091404     -0.183815     -1.034372
  H      -0.073309      0.988408      0.359765
  F      -2.039607     -0.004299      0.031345
6
Coordinates from ORCA-job neb_MEP_ALL E -600.131152642384
  C       0.114607      0.000243     -0.001813
  Cl      2.142040      0.004547     -0.032454
  H      -0.064326     -0.807295      0.679545
  H      -0.090960     -0.184306     -1.037178
  H      -0.072830      0.991086      0.360724
  F      -2.028532     -0.004277      0.031176
6
Coordinates from ORCA-job neb_MEP_ALL E -600.130725399065
  C       0.094274      0.000196     -0.001495
  Cl      2.149534      0.004566     -0.032578
  H      -0.063572     -0.809284      0.681211
  H      -0.090261     -0.184757     -1.039743
  H      -0.072092      0.993532      0.361601
  F      -2.017883     -0.004254      0.031005
6
Coordinates from ORCA-job neb_MEP_ALL E -600.130452922533
  C       0.073836      0.000148     -0.001169
  Cl      2.157137      0.004583     -0.032705
  H      -0.062657     -0.811024      0.682665
  H      -0.089394     -0.185152     -1.041998
  H      -0.071194      0.995677      0.362367
  F      -2.007728     -0.004232      0.030841
6
Coordinates from ORCA-job neb_MEP_ALL E -600.130366416483
  C       0.054296      0.000096     -0.000841
  Cl      2.164455      0.004599     -0.032829
  H      -0.061673     -0.812446      0.683850
  H      -0.088445     -0.185476     -1.043862
  H      -0.070223      0.997437      0.362991
  F      -1.998409     -0.004211      0.030691
6
Coordinates from ORCA-job neb_MEP_ALL E -600.130459174420
  C       0.035564      0.000052     -0.000539
  Cl      2.171517      0.004612     -0.032941
  H      -0.060612     -0.813599      0.684804
  H      -0.087404     -0.185736     -1.045378
  H      -0.069168      0.998869      0.363488
  F      -1.989897     -0.004198      0.030565
6
Coordinates from ORCA-job neb_MEP_ALL E -600.130742537698
  C       0.016757      0.000008     -0.000237
  Cl      2.178593      0.004627     -0.033051
  H      -0.059503     -0.814584      0.685613
  H      -0.086295     -0.185957     -1.046679
  H      -0.068055      1.000091      0.363906
  F      -1.981497     -0.004185      0.030448
6
Coordinates from ORCA-job neb_MEP_ALL E -600.131267266570
  C      -0.003093     -0.000026      0.000033
  Cl      2.186013      0.004644     -0.033165
  H      -0.058297     -0.815469      0.686335
  H      -0.085081     -0.186148     -1.047801
  H      -0.066841      1.001169      0.364271
  F      -1.972701     -0.004170      0.030326
6
Coordinates from ORCA-job neb_MEP_ALL E -600.132143223523
  C      -0.024451     -0.000085      0.000571
  Cl      2.193899      0.004665     -0.033293
  H      -0.056959     -0.816172      0.686888
  H      -0.083750     -0.186336     -1.048914
  H      -0.065496      1.002080      0.364560
  F      -1.963242     -0.004152      0.030187
6
Coordinates from ORCA-job neb_MEP_ALL E -600.132907379116
  C      -0.039607     -0.000011     -0.000194
  Cl      2.199415      0.004681     -0.033371
  H      -0.056011     -0.816948      0.687566
  H      -0.082832     -0.186347     -1.048901
  H      -0.064556      1.002759      0.364842
  F      -1.956409     -0.004133      0.030058
6
Coordinates from ORCA-job neb_MEP_ALL E -600.134778896394
  C      -0.067294     -0.000249      0.001915
  Cl      2.209556      0.004689     -0.033467
  H      -0.054454     -0.816632      0.687122
  H      -0.080826     -0.186540     -1.050416
  H      -0.062829      1.002900      0.364669
  F      -1.944153     -0.004167      0.030177
6
Coordinates from ORCA-job neb_MEP_ALL E -600.150707094985
  C      -0.205827     -0.000553      0.003257
  Cl      2.260228      0.004845     -0.034516
  H      -0.046459     -0.813488      0.684559
  H      -0.073317     -0.185623     -1.045152
  H      -0.054958      0.998774      0.363253
  F      -1.879667     -0.003955      0.028599
6
Coordinates from ORCA-job neb_MEP_ALL E -600.161489364601
  C      -0.283775     -0.000694      0.004500
  Cl      2.292866      0.004926     -0.035080
  H      -0.042857     -0.808705      0.680423
  H      -0.070027     -0.184408     -1.038507
  H      -0.051432      0.992736      0.360929
  F      -1.844774     -0.003855      0.027736
6
Coordinates from ORCA-job neb_MEP_ALL E -600.168247308443
  C      -0.343801     -0.000190      0.004324
  Cl      2.324727      0.004889     -0.035198
  H      -0.041164     -0.800369      0.672777
  H      -0.065797     -0.182222     -1.027446
  H      -0.049046      0.982035      0.356294
  F      -1.824919     -0.004142      0.029248
6
Coordinates from ORCA-job neb_MEP_ALL E -600.171526983270
  C      -0.382293     -0.000895      0.005382
  Cl      2.364434      0.005057     -0.036824
  H      -0.042461     -0.790208      0.665362
  H      -0.064996     -0.180577     -1.016109
  H      -0.049672      0.970662      0.353468
  F      -1.825012     -0.004040      0.028721
6
Coordinates from ORCA-job neb_MEP_ALL E -600.173769917527
  C      -0.406224     -0.000911      0.006565
  Cl      2.426328      0.005294     -0.037222
  H      -0.049041     -0.786445      0.662695
  H      -0.077306     -0.180010     -1.010954
  H      -0.057949      0.965645      0.352413
  F      -1.835808     -0.003573      0.026503
6
Coordinates from ORCA-job neb_MEP_ALL E -600.175594117361
  C      -0.426624     -0.001012      0.007351
  Cl      2.508397      0.005889     -0.041872
  H      -0.067712     -0.785848      0.663204
  H      -0.089284     -0.179533     -1.006833
  H      -0.074514      0.963986      0.352901
  F      -1.850263     -0.003482      0.025249
6
Coordinates from ORCA-job neb_MEP_ALL E -600.176494634793
  C      -0.442888     -0.000996      0.006871
  Cl      2.573165      0.005722     -0.039683
  H      -0.077538     -0.783936      0.660259
  H      -0.103432     -0.179068     -1.006303
  H      -0.085517      0.962060      0.350721
  F      -1.863791     -0.003782      0.028135
6
Coordinates from ORCA-job neb_MEP_ALL E -600.176748300686
  C      -0.449437     -0.000974      0.007367
  Cl      2.598826      0.005597     -0.041627
  H      -0.083810     -0.783921      0.661196
  H      -0.107761     -0.178959     -1.005392
  H      -0.091689      0.962184      0.351603
  F      -1.866130     -0.003927      0.026853
6
Coordinates from ORCA-job neb_MEP_ALL E -600.173324335993
  C      -0.447880     -0.000914      0.007361
  Cl      2.503616      0.005280     -0.040452
  H      -0.071674     -0.788972      0.665575
  H      -0.095405     -0.179994     -1.012053
  H      -0.079730      0.968482      0.353848
  F      -1.808928     -0.003882      0.025721
6
Coordinates from ORCA-job neb_MEP_ALL E -600.134564299856
  C       0.308438      0.001548     -0.010576
  Cl      2.140610      0.002551     -0.019709
  H      -0.030064     -0.791634      0.657690
  H      -0.035298     -0.179551     -1.029714
  H      -0.031425      0.975489      0.344389
  F      -2.352262     -0.008402      0.057921
6
Coordinates from ORCA-job neb_MEP_ALL E -600.135264043350
  C       0.282366      0.001440     -0.009371
  Cl      2.129384      0.002645     -0.021072
  H      -0.045708     -0.783237      0.652352
  H      -0.053229     -0.178038     -1.017829
  H      -0.047615      0.965091      0.342629
  F      -2.265198     -0.007901      0.053291
6
Coordinates from ORCA-job neb_MEP_ALL E -600.134855810118
  C       0.243065      0.000305     -0.002634
  Cl      2.113498      0.004914     -0.034214
  H      -0.057058     -0.788936      0.665339
  H      -0.087139     -0.180318     -1.011322
  H      -0.066835      0.967771      0.353892
  F      -2.145531     -0.003737      0.028938
6
Coordinates from ORCA-job neb_MEP_ALL E -600.133899875745
  C       0.209991      0.000539     -0.003849
  Cl      2.113858      0.004284     -0.030640
  H      -0.065574     -0.793639      0.667229
  H      -0.089934     -0.181094     -1.020826
  H      -0.073283      0.974666      0.353754
  F      -2.095058     -0.004756      0.034332
6
Coordinates from ORCA-job neb_MEP_ALL E -600.133015114747
  C       0.177690      0.000361     -0.002701
  Cl      2.121086      0.004519     -0.032149
  H      -0.064352     -0.799130      0.672773
  H      -0.091090     -0.182478     -1.026620
  H      -0.072840      0.981051      0.357202
  F      -2.070494     -0.004323      0.031496
6
Coordinates from ORCA-job neb_MEP_ALL E -600.132263560981
  C       0.153688      0.000318     -0.002379
  Cl      2.128810      0.004505     -0.032144
  H      -0.065088     -0.802600      0.675596
  H      -0.091730     -0.183244     -1.031161
  H      -0.073593      0.985329      0.358637
  F      -2.052086     -0.004307      0.031451
6
Coordinates from ORCA-job neb_MEP_ALL E -600.131663764015
  C       0.133189      0.000274     -0.002069
  Cl      2.135984      0.004512     -0.032232
  H      -0.064763     -0.805374      0.677905
  H      -0.091435     -0.183869     -1.034762
  H      -0.073280      0.988750      0.359845
  F      -2.039696     -0.004293      0.031313
6
Coordinates from ORCA-job neb_MEP_ALL E -600.131148668232
  C       0.113640      0.000228     -0.001766
  Cl      2.143069      0.004530     -0.032334
  H      -0.064157     -0.807632      0.679791
  H      -0.090871     -0.184382     -1.037696
  H      -0.072676      0.991534      0.360837
  F      -2.029005     -0.004276      0.031168
6
Coordinates from ORCA-job neb_MEP_ALL E -600.130729118418
  C       0.093776      0.000184     -0.001460
  Cl      2.150401      0.004544     -0.032445
  H      -0.063392     -0.809591      0.681424
  H      -0.090147     -0.184827     -1.040235
  H      -0.071926      0.993947      0.361695
  F      -2.018713     -0.004258      0.031022
6
Coordinates from ORCA-job neb_MEP_ALL E -600.130458995127
  C       0.074013      0.000141     -0.001159
  Cl      2.157745      0.004558     -0.032557
  H      -0.062510     -0.811261      0.682815
  H      -0.089301     -0.185203     -1.042400
  H      -0.071058      0.996003      0.362423
  F      -2.008890     -0.004238      0.030878
6
Coordinates from ORCA-job neb_MEP_ALL E -600.130373605708
  C       0.054626      0.000096     -0.000857
  Cl      2.165010      0.004575     -0.032671
  H      -0.061541     -0.812656      0.683972
  H      -0.088361     -0.185517     -1.044210
  H      -0.070100      0.997720      0.363026
  F      -1.999634     -0.004219      0.030740
6
Coordinates from ORCA-job neb_MEP_ALL E -600.130466987438
  C       0.035651      0.000057     -0.000575
  Cl      2.172174      0.004587     -0.032777
  H      -0.060485     -0.813810      0.684926
  H      -0.087324     -0.185774     -1.045711
  H      -0.069048      0.999146      0.363520
  F      -1.990968     -0.004206      0.030617
6
Coordinates from ORCA-job neb_MEP_ALL E -600.130748045290
  C       0.016911      0.000018     -0.000296
  Cl      2.179234      0.004598     -0.032880
  H      -0.059388     -0.814785      0.685728
  H      -0.086245     -0.185991     -1.046984
  H      -0.067956      1.000352      0.363934
  F      -1.982557     -0.004194      0.030498
6
Coordinates from ORCA-job neb_MEP_ALL E -600.131269857485
  C      -0.003245     -0.000031      0.000031
  Cl      2.186792      0.004613     -0.032992
  H      -0.058166     -0.815624      0.686414
  H      -0.085029     -0.186180     -1.048116
  H      -0.066732      1.001403      0.364288
  F      -1.973621     -0.004180      0.030374
6
Coordinates from ORCA-job neb_MEP_ALL E -600.132092186704
  C      -0.021060     -0.000058      0.000181
  Cl      2.193438      0.004627     -0.033083
  H      -0.057049     -0.816269      0.686944
  H      -0.083928     -0.186306     -1.048857
  H      -0.065618      1.002172      0.364551
  F      -1.965783     -0.004165      0.030263
6
Coordinates from ORCA-job neb_MEP_ALL E -600.132856578209
  C      -0.039768     -0.000108      0.000293
  Cl      2.200278      0.004651     -0.033206
  H      -0.055801     -0.816861      0.687454
  H      -0.082843     -0.186412     -1.049393
  H      -0.064423      1.002857      0.364820
  F      -1.957444     -0.004127      0.030032
6
Coordinates from ORCA-job neb_MEP_ALL E -600.134651020379
  C      -0.065543     -0.000248      0.002075
  Cl      2.209175      0.004678     -0.033369
  H      -0.054118     -0.817114      0.687535
  H      -0.081173     -0.186674     -1.050987
  H      -0.062723      1.003459      0.364910
  F      -1.945619     -0.004102      0.029836
6
Coordinates from ORCA-job neb_MEP_ALL E -600.150398634854
  C      -0.201022     -0.000383      0.002439
  Cl      2.258837      0.004777     -0.034052
  H      -0.046775     -0.813498      0.684460
  H      -0.073122     -0.185616     -1.045290
  H      -0.055114      0.998772      0.363130
  F      -1.882805     -0.004051      0.029313
6
Coordinates from ORCA-job neb_MEP_ALL E -600.161456188996
  C      -0.282411     -0.000740      0.004698
  Cl      2.295423      0.004938     -0.035020
  H      -0.043504     -0.808135      0.680236
  H      -0.070955     -0.184522     -1.038477
  H      -0.052154      0.992237      0.361110
  F      -1.846400     -0.003779      0.027453
6
Coordinates from ORCA-job neb_MEP_ALL E -600.168326795624
  C      -0.342092     -0.000976      0.006146
  Cl      2.332782      0.004966     -0.035271
  H      -0.042780     -0.802167      0.674679
  H      -0.071546     -0.182789     -1.029939
  H      -0.051804      0.984678      0.357698
  F      -1.824561     -0.003711      0.026688
6
Coordinates from ORCA-job neb_MEP_ALL E -600.171568863294
  C      -0.384049     -0.000554      0.004911
  Cl      2.367158      0.004966     -0.035878
  H      -0.043479     -0.791924      0.665451
  H      -0.066148     -0.180199     -1.016678
  H      -0.050690      0.971962      0.352334
  F      -1.822792     -0.004250      0.029860
6
Coordinates from ORCA-job neb_MEP_ALL E -600.173813756408
  C      -0.409401     -0.000921      0.006032
  Cl      2.427718      0.005214     -0.037133
  H      -0.050059     -0.784342      0.660689
  H      -0.075691     -0.179429     -1.008609
  H      -0.058157      0.963319      0.351202
  F      -1.834409     -0.003840      0.027819
6
Coordinates from ORCA-job neb_MEP_ALL E -600.175614155198
  C      -0.428302     -0.001008      0.007300
  Cl      2.509431      0.005789     -0.040977
  H      -0.066196     -0.784829      0.662135
  H      -0.089335     -0.179395     -1.006275
  H      -0.073492      0.962939      0.352307
  F      -1.852107     -0.003496      0.025509
6
Coordinates from ORCA-job neb_MEP_ALL E -600.176485816367
  C      -0.441929     -0.001016      0.007035
  Cl      2.570877      0.005796     -0.040350
  H      -0.077857     -0.784233      0.660870
  H      -0.102491     -0.179149     -1.006138
  H      -0.085477      0.962298      0.351216
  F      -1.863123     -0.003697      0.027367
6
Coordinates from ORCA-job neb_MEP_ALL E -600.176719655905
  C      -0.447181     -0.000969      0.007344
  Cl      2.590359      0.005565     -0.041546
  H      -0.082562     -0.784390      0.661785
  H      -0.106472     -0.179121     -1.006087
  H      -0.090453      0.962819      0.352032
  F      -1.863690     -0.003903      0.026472
6
Coordinates from ORCA-job neb_MEP_ALL E -600.173324335993
  C      -0.447880     -0.000912      0.007341
  Cl      2.503618      0.005269     -0.040342
  H      -0.071707     -0.788972      0.665572
  H      -0.095361     -0.179994     -1.012057
  H      -0.079741      0.968483      0.353844
  F      -1.808929     -0.003874      0.025642
6
Coordinates from ORCA-job neb_MEP_ALL E -600.134564299856
  C       0.308438      0.001548     -0.010576
  Cl      2.140610      0.002551     -0.019709
  H      -0.030064     -0.791634      0.657690
  H      -0.035298     -0.179551     -1.029714
  H      -0.031425      0.975489      0.344389
  F      -2.352262     -0.008402      0.057921
6
Coordinates from ORCA-job neb_MEP_ALL E -600.135275330800
  C       0.281710      0.001436     -0.009330
  Cl      2.129242      0.002650     -0.021143
  H      -0.046039     -0.783184      0.652366
  H      -0.053689     -0.178031     -1.017682
  H      -0.047990      0.965009      0.342667
  F      -2.263233     -0.007880      0.053122
6
Coordinates from ORCA-job neb_MEP_ALL E -600.134779348423
  C       0.242041      0.000337     -0.002808
  Cl      2.113585      0.004832     -0.033753
  H      -0.057938     -0.788863      0.665034
  H      -0.087324     -0.180266     -1.011627
  H      -0.067465      0.967812      0.353595
  F      -2.142899     -0.003852      0.029558
6
Coordinates from ORCA-job neb_MEP_ALL E -600.133911738187
  C       0.208650      0.000512     -0.003685
  Cl      2.114710      0.004327     -0.030919
  H      -0.064613     -0.794036      0.667778
  H      -0.089589     -0.181224     -1.021065
  H      -0.072521      0.975080      0.354171
  F      -2.096636     -0.004659      0.033719
6
Coordinates from ORCA-job neb_MEP_ALL E -600.133021254775
  C       0.177729      0.000356     -0.002670
  Cl      2.121725      0.004519     -0.032168
  H      -0.064103     -0.799380      0.673016
  H      -0.090991     -0.182541     -1.026889
  H      -0.072661      0.981336      0.357347
  F      -2.071699     -0.004290      0.031363
6
Coordinates from ORCA-job neb_MEP_ALL E -600.132244288203
  C       0.153775      0.000321     -0.002403
  Cl      2.129188      0.004488     -0.032060
  H      -0.065191     -0.802801      0.675736
  H      -0.091857     -0.183279     -1.031423
  H      -0.073713      0.985576      0.358689
  F      -2.052203     -0.004305      0.031460
6
Coordinates from ORCA-job neb_MEP_ALL E -600.131641217009
  C       0.132560      0.000274     -0.002074
  Cl      2.136510      0.004503     -0.032172
  H      -0.064683     -0.805598      0.678081
  H      -0.091411     -0.183914     -1.035044
  H      -0.073210      0.989023      0.359927
  F      -2.039766     -0.004289      0.031280
6
Coordinates from ORCA-job neb_MEP_ALL E -600.131130319091
  C       0.112847      0.000233     -0.001777
  Cl      2.143634      0.004520     -0.032273
  H      -0.064014     -0.807799      0.679918
  H      -0.090783     -0.184414     -1.037897
  H      -0.072542      0.991732      0.360894
  F      -2.029143     -0.004273      0.031136
6
Coordinates from ORCA-job neb_MEP_ALL E -600.130720263089
  C       0.093349      0.000185     -0.001468
  Cl      2.150820      0.004533     -0.032380
  H      -0.063246     -0.809671      0.681478
  H      -0.090059     -0.184841     -1.040340
  H      -0.071793      0.994047      0.361715
  F      -2.019070     -0.004254      0.030994
6
Coordinates from ORCA-job neb_MEP_ALL E -600.130466164138
  C       0.074066      0.000141     -0.001168
  Cl      2.157986      0.004547     -0.032486
  H      -0.062387     -0.811280      0.682816
  H      -0.089239     -0.185204     -1.042433
  H      -0.070950      0.996029      0.362414
  F      -2.009476     -0.004234      0.030857
6
Coordinates from ORCA-job neb_MEP_ALL E -600.130378574029
  C       0.054830      0.000094     -0.000857
  Cl      2.165199      0.004563     -0.032596
  H      -0.061434     -0.812666      0.683965
  H      -0.088319     -0.185518     -1.044247
  H      -0.070009      0.997742      0.363014
  F      -2.000268     -0.004215      0.030721
6
Coordinates from ORCA-job neb_MEP_ALL E -600.130467236388
  C       0.035763      0.000051     -0.000562
  Cl      2.172407      0.004575     -0.032701
  H      -0.060385     -0.813828      0.684925
  H      -0.087299     -0.185778     -1.045770
  H      -0.068968      0.999182      0.363512
  F      -1.991519     -0.004202      0.030596
6
Coordinates from ORCA-job neb_MEP_ALL E -600.130747485896
  C       0.016965      0.000001     -0.000246
  Cl      2.179496      0.004586     -0.032804
  H      -0.059292     -0.814796      0.685721
  H      -0.086241     -0.185999     -1.047070
  H      -0.067886      1.000396      0.363929
  F      -1.983043     -0.004189      0.030470
6
Coordinates from ORCA-job neb_MEP_ALL E -600.131273576604
  C      -0.002613     -0.000015     -0.000044
  Cl      2.186843      0.004598     -0.032909
  H      -0.058113     -0.815660      0.686436
  H      -0.085076     -0.186178     -1.048117
  H      -0.066710      1.001431      0.364288
  F      -1.974331     -0.004177      0.030346
6
Coordinates from ORCA-job neb_MEP_ALL E -600.131935471327
  C      -0.019203     -0.000099      0.000729
  Cl      2.193055      0.004610     -0.033010
  H      -0.057076     -0.816080      0.686754
  H      -0.084090     -0.186352     -1.049181
  H      -0.065685      1.002082      0.364481
  F      -1.967002     -0.004162      0.030227
6
Coordinates from ORCA-job neb_MEP_ALL E -600.132873034860
  C      -0.039930     -0.000063      0.001122
  Cl      2.200690      0.004630     -0.033148
  H      -0.055710     -0.816707      0.687279
  H      -0.082862     -0.186507     -1.050002
  H      -0.064363      1.002776      0.364740
  F      -1.957825     -0.004129      0.030009
6
Coordinates from ORCA-job neb_MEP_ALL E -600.134512820690
  C      -0.066176      0.000089     -0.002037
  Cl      2.209944      0.004654     -0.033228
  H      -0.053936     -0.818229      0.688702
  H      -0.081210     -0.186295     -1.048537
  H      -0.062643      1.003868      0.365304
  F      -1.945980     -0.004087      0.029795
6
Coordinates from ORCA-job neb_MEP_ALL E -600.149689168259
  C      -0.198098     -0.000631      0.003880
  Cl      2.257616      0.004749     -0.033791
  H      -0.046813     -0.813290      0.684180
  H      -0.073121     -0.185822     -1.046612
  H      -0.055141      0.999030      0.363110
  F      -1.884443     -0.004035      0.029233
6
Coordinates from ORCA-job neb_MEP_ALL E -600.161361871221
  C      -0.281965     -0.001008      0.004886
  Cl      2.295258      0.004917     -0.034732
  H      -0.043661     -0.807509      0.679659
  H      -0.070425     -0.184522     -1.038642
  H      -0.052066      0.991952      0.360934
  F      -1.847141     -0.003829      0.027896
6
Coordinates from ORCA-job neb_MEP_ALL E -600.168432630223
  C      -0.341262     -0.000233      0.004685
  Cl      2.336093      0.005011     -0.035326
  H      -0.043204     -0.802350      0.675362
  H      -0.073168     -0.182866     -1.028910
  H      -0.052700      0.984060      0.358178
  F      -1.825759     -0.003623      0.026012
6
Coordinates from ORCA-job neb_MEP_ALL E -600.171685645703
  C      -0.383123     -0.000878      0.005500
  Cl      2.372497      0.004954     -0.035389
  H      -0.044635     -0.793091      0.666132
  H      -0.069433     -0.180286     -1.017797
  H      -0.052404      0.973404      0.352493
  F      -1.822902     -0.004104      0.029063
6
Coordinates from ORCA-job neb_MEP_ALL E -600.173883514126
  C      -0.410559     -0.000938      0.006140
  Cl      2.428938      0.005159     -0.036969
  H      -0.050776     -0.784305      0.660223
  H      -0.074695     -0.179212     -1.008554
  H      -0.058342      0.963301      0.350623
  F      -1.834567     -0.004005      0.028537
6
Coordinates from ORCA-job neb_MEP_ALL E -600.175642003818
  C      -0.429662     -0.000961      0.007055
  Cl      2.509297      0.005697     -0.040211
  H      -0.065227     -0.784012      0.661252
  H      -0.089162     -0.179239     -1.005693
  H      -0.072782      0.962055      0.351769
  F      -1.852464     -0.003540      0.025828
6
Coordinates from ORCA-job neb_MEP_ALL E -600.176458575752
  C      -0.441596     -0.001034      0.007132
  Cl      2.569268      0.005824     -0.040598
  H      -0.077836     -0.784318      0.661158
  H      -0.101795     -0.179189     -1.005992
  H      -0.085270      0.962354      0.351481
  F      -1.862770     -0.003637      0.026819
6
Coordinates from ORCA-job neb_MEP_ALL E -600.176636904871
  C      -0.445515     -0.000961      0.007298
  Cl      2.585928      0.005532     -0.041355
  H      -0.082151     -0.784611      0.662021
  H      -0.105931     -0.179182     -1.006405
  H      -0.090021      0.963114      0.352184
  F      -1.862310     -0.003892      0.026256
6
Coordinates from ORCA-job neb_MEP_ALL E -600.173324335993
  C      -0.447880     -0.000909      0.007311
  Cl      2.503621      0.005254     -0.040174
  H      -0.071756     -0.788971      0.665567
  H      -0.095294     -0.179994     -1.012064
  H      -0.079759      0.968483      0.353839
  F      -1.808931     -0.003863      0.025521
6
Coordinates from ORCA-job neb_MEP_ALL E -600.134564299856
  C       0.308438      0.001548     -0.010576
  Cl      2.140610      0.002551     -0.019709
  H      -0.030064     -0.791634      0.657690
  H      -0.035298     -0.179551     -1.029714
  H      -0.031425      0.975489      0.344389
  F      -2.352262     -0.008402      0.057921
6
Coordinates from ORCA-job neb_MEP_ALL E -600.135268729653
  C       0.281390      0.001436     -0.009327
  Cl      2.129295      0.002653     -0.021162
  H      -0.045985     -0.783040      0.652256
  H      -0.053665     -0.177997     -1.017469
  H      -0.047947      0.964823      0.342613
  F      -2.263088     -0.007875      0.053089
6
Coordinates from ORCA-job neb_MEP_ALL E -600.134750187536
  C       0.241962      0.000356     -0.002913
  Cl      2.113788      0.004798     -0.033557
  H      -0.057967     -0.788803      0.664873
  H      -0.087050     -0.180236     -1.011724
  H      -0.067388      0.967791      0.353449
  F      -2.143346     -0.003906      0.029873
6
Coordinates from ORCA-job neb_MEP_ALL E -600.133916335722
  C       0.208210      0.000498     -0.003598
  Cl      2.114858      0.004356     -0.031105
  H      -0.064320     -0.794241      0.668073
  H      -0.089600     -0.181287     -1.021149
  H      -0.072330      0.975279      0.354394
  F      -2.096817     -0.004605      0.033385
6
Coordinates from ORCA-job neb_MEP_ALL E -600.133022535930
  C       0.178082      0.000361     -0.002700
  Cl      2.121683      0.004510     -0.032120
  H      -0.064372     -0.799490      0.673079
  H      -0.091206     -0.182557     -1.027042
  H      -0.072920      0.981473      0.357361
  F      -2.071267     -0.004297      0.031422
6
Coordinates from ORCA-job neb_MEP_ALL E -600.132255332810
  C       0.153876      0.000324     -0.002416
  Cl      2.129146      0.004487     -0.032048
  H      -0.065181     -0.802919      0.675833
  H      -0.091846     -0.183303     -1.031568
  H      -0.073698      0.985718      0.358738
  F      -2.052297     -0.004307      0.031462
6
Coordinates from ORCA-job neb_MEP_ALL E -600.131626561983
  C       0.132466      0.000279     -0.002091
  Cl      2.136518      0.004504     -0.032164
  H      -0.064645     -0.805638      0.678116
  H      -0.091376     -0.183920     -1.035078
  H      -0.073167      0.989065      0.359944
  F      -2.039795     -0.004289      0.031273
6
Coordinates from ORCA-job neb_MEP_ALL E -600.131118943697
  C       0.112659      0.000239     -0.001796
  Cl      2.143672      0.004519     -0.032269
  H      -0.063976     -0.807791      0.679914
  H      -0.090753     -0.184409     -1.037862
  H      -0.072506      0.991714      0.360890
  F      -2.029097     -0.004271      0.031122
6
Coordinates from ORCA-job neb_MEP_ALL E -600.130718293096
  C       0.093234      0.000194     -0.001498
  Cl      2.150826      0.004532     -0.032375
  H      -0.063214     -0.809634      0.681450
  H      -0.090036     -0.184827     -1.040252
  H      -0.071763      0.993985      0.361698
  F      -2.019047     -0.004251      0.030977
6
Coordinates from ORCA-job neb_MEP_ALL E -600.130458278648
  C       0.074035      0.000151     -0.001205
  Cl      2.157964      0.004547     -0.032481
  H      -0.062360     -0.811232      0.682780
  H      -0.089223     -0.185187     -1.042324
  H      -0.070925      0.995952      0.362392
  F      -2.009490     -0.004231      0.030838
6
Coordinates from ORCA-job neb_MEP_ALL E -600.130376956808
  C       0.054848      0.000108     -0.000908
  Cl      2.165160      0.004562     -0.032591
  H      -0.061411     -0.812630      0.683941
  H      -0.088312     -0.185501     -1.044139
  H      -0.069990      0.997673      0.362997
  F      -2.000294     -0.004211      0.030700
6
Coordinates from ORCA-job neb_MEP_ALL E -600.130456468010
  C       0.035805      0.000067     -0.000618
  Cl      2.172361      0.004574     -0.032696
  H      -0.060366     -0.813802      0.684909
  H      -0.087298     -0.185763     -1.045667
  H      -0.068954      0.999122      0.363499
  F      -1.991547     -0.004198      0.030572
6
Coordinates from ORCA-job neb_MEP_ALL E -600.130736340549
  C       0.016974      0.000023     -0.000319
  Cl      2.179464      0.004586     -0.032799
  H      -0.059275     -0.814784      0.685719
  H      -0.086243     -0.185985     -1.046966
  H      -0.067873      1.000345      0.363921
  F      -1.983047     -0.004184      0.030444
6
Coordinates from ORCA-job neb_MEP_ALL E -600.131244375822
  C      -0.002179     -0.000006     -0.000074
  Cl      2.186648      0.004597     -0.032903
  H      -0.058122     -0.815626      0.686414
  H      -0.085114     -0.186166     -1.048032
  H      -0.066727      1.001373      0.364276
  F      -1.974507     -0.004171      0.030318
6
Coordinates from ORCA-job neb_MEP_ALL E -600.131865093820
  C      -0.019163     -0.000054      0.000335
  Cl      2.192993      0.004608     -0.032999
  H      -0.057073     -0.816181      0.686862
  H      -0.084094     -0.186313     -1.048914
  H      -0.065685      1.002098      0.364513
  F      -1.966978     -0.004158      0.030202
6
Coordinates from ORCA-job neb_MEP_ALL E -600.132879811343
  C      -0.039929     -0.000110      0.001121
  Cl      2.200675      0.004626     -0.033131
  H      -0.055733     -0.816633      0.687215
  H      -0.082841     -0.186490     -1.049946
  H      -0.064370      1.002741      0.364718
  F      -1.957801     -0.004133      0.030022
6
Coordinates from ORCA-job neb_MEP_ALL E -600.134520807538
  C      -0.067130      0.000005     -0.000438
  Cl      2.210493      0.004652     -0.033264
  H      -0.053916     -0.817681      0.688185
  H      -0.081191     -0.186418     -1.049349
  H      -0.062617      1.003530      0.365113
  F      -1.945639     -0.004087      0.029754
6
Coordinates from ORCA-job neb_MEP_ALL E -600.149258149167
  C      -0.197720     -0.000488      0.003138
  Cl      2.257337      0.004746     -0.033835
  H      -0.046662     -0.813742      0.684608
  H      -0.073282     -0.185794     -1.046321
  H      -0.055101      0.999294      0.363268
  F      -1.884572     -0.004016      0.029141
6
Coordinates from ORCA-job neb_MEP_ALL E -600.161284151057
  C      -0.282023     -0.000784      0.004548
  Cl      2.294428      0.004879     -0.034605
  H      -0.043481     -0.807547      0.679580
  H      -0.069997     -0.184472     -1.038515
  H      -0.051833      0.991805      0.360762
  F      -1.847093     -0.003882      0.028230
6
Coordinates from ORCA-job neb_MEP_ALL E -600.168481885233
  C      -0.341492     -0.000535      0.005020
  Cl      2.335445      0.005011     -0.035370
  H      -0.043133     -0.801262      0.674535
  H      -0.072114     -0.182824     -1.028556
  H      -0.052269      0.983252      0.357977
  F      -1.826438     -0.003643      0.026393
6
Coordinates from ORCA-job neb_MEP_ALL E -600.171817165734
  C      -0.382073     -0.000836      0.005794
  Cl      2.374564      0.004974     -0.035472
  H      -0.044891     -0.793350      0.666619
  H      -0.070907     -0.180476     -1.018224
  H      -0.053048      0.973671      0.352929
  F      -1.823645     -0.003982      0.028353
6
Coordinates from ORCA-job neb_MEP_ALL E -600.173920719661
  C      -0.410231     -0.000863      0.006019
  Cl      2.429457      0.005146     -0.036945
  H      -0.050851     -0.785041      0.660679
  H      -0.074844     -0.179236     -1.009035
  H      -0.058439      0.964011      0.350683
  F      -1.835093     -0.004017      0.028600
6
Coordinates from ORCA-job neb_MEP_ALL E -600.175645594828
  C      -0.429880     -0.000977      0.007024
  Cl      2.508989      0.005666     -0.040087
  H      -0.065146     -0.783844      0.661044
  H      -0.089092     -0.179196     -1.005616
  H      -0.072692      0.961910      0.351631
  F      -1.852179     -0.003559      0.026004
6
Coordinates from ORCA-job neb_MEP_ALL E -600.176444773170
  C      -0.441675     -0.001027      0.007139
  Cl      2.568903      0.005814     -0.040621
  H      -0.077688     -0.784270      0.661144
  H      -0.101659     -0.179185     -1.005925
  H      -0.085125      0.962293      0.351489
  F      -1.862756     -0.003625      0.026774
6
Coordinates from ORCA-job neb_MEP_ALL E -600.176600117230
  C      -0.445190     -0.000957      0.007292
  Cl      2.585437      0.005518     -0.041338
  H      -0.082165     -0.784597      0.661989
  H      -0.105922     -0.179169     -1.006379
  H      -0.090025      0.963096      0.352153
  F      -1.862135     -0.003890      0.026284
6
Coordinates from ORCA-job neb_MEP_ALL E -600.173324335993
  C      -0.447880     -0.000907      0.007311
  Cl      2.503621      0.005244     -0.040176
  H      -0.071759     -0.788971      0.665567
  H      -0.095296     -0.179993     -1.012064
  H      -0.079755      0.968483      0.353839
  F      -1.808931     -0.003856      0.025522
6
Coordinates from ORCA-job neb_MEP_ALL E -600.134564299856
  C       0.308438      0.001548     -0.010576
  Cl      2.140610      0.002551     -0.019709
  H      -0.030064     -0.791634      0.657690
  H      -0.035298     -0.179551     -1.029714
  H      -0.031425      0.975489      0.344389
  F      -2.352262     -0.008402      0.057921
6
Coordinates from ORCA-job neb_MEP_ALL E -600.135274376226
  C       0.280865      0.001434     -0.009308
  Cl      2.129329      0.002659     -0.021211
  H      -0.045932     -0.782835      0.652114
  H      -0.053692     -0.177951     -1.017148
  H      -0.047923      0.964555      0.342551
  F      -2.262647     -0.007861      0.053002
6
Coordinates from ORCA-job neb_MEP_ALL E -600.134749581233
  C       0.241748      0.000390     -0.003109
  Cl      2.114171      0.004729     -0.033156
  H      -0.057985     -0.788771      0.664621
  H      -0.086460     -0.180201     -1.012064
  H      -0.067191      0.967871      0.353194
  F      -2.144284     -0.004018      0.030515
6
Coordinates from ORCA-job neb_MEP_ALL E -600.133908458324
  C       0.207447      0.000471     -0.003416
  Cl      2.115062      0.004412     -0.031470
  H      -0.063883     -0.794661      0.668664
  H      -0.089754     -0.181413     -1.021337
  H      -0.072097      0.975690      0.354834
  F      -2.096775     -0.004498      0.032725
6
Coordinates from ORCA-job neb_MEP_ALL E -600.133027380135
  C       0.178606      0.000371     -0.002760
  Cl      2.121508      0.004489     -0.032004
  H      -0.064911     -0.799589      0.673090
  H      -0.091608     -0.182559     -1.027214
  H      -0.073425      0.981604      0.357320
  F      -2.070171     -0.004316      0.031567
6
Coordinates from ORCA-job neb_MEP_ALL E -600.132252053415
  C       0.153898      0.000327     -0.002430
  Cl      2.129036      0.004486     -0.032028
  H      -0.065075     -0.803030      0.675924
  H      -0.091740     -0.183327     -1.031706
  H      -0.073576      0.985852      0.358783
  F      -2.052544     -0.004310      0.031457
6
Coordinates from ORCA-job neb_MEP_ALL E -600.131623115146
  C       0.132221      0.000283     -0.002103
  Cl      2.136516      0.004503     -0.032148
  H      -0.064540     -0.805639      0.678116
  H      -0.091281     -0.183920     -1.035065
  H      -0.073054      0.989060      0.359944
  F      -2.039862     -0.004288      0.031256
6
Coordinates from ORCA-job neb_MEP_ALL E -600.131109852328
  C       0.112288      0.000241     -0.001803
  Cl      2.143726      0.004517     -0.032259
  H      -0.063896     -0.807743      0.679876
  H      -0.090696     -0.184396     -1.037777
  H      -0.072431      0.991647      0.360871
  F      -2.028991     -0.004266      0.031091
6
Coordinates from ORCA-job neb_MEP_ALL E -600.130718708856
  C       0.092998      0.000201     -0.001517
  Cl      2.150828      0.004531     -0.032366
  H      -0.063149     -0.809549      0.681386
  H      -0.090001     -0.184803     -1.040105
  H      -0.071705      0.993866      0.361662
  F      -2.018971     -0.004245      0.030940
6
Coordinates from ORCA-job neb_MEP_ALL E -600.130465518988
  C       0.073940      0.000159     -0.001230
  Cl      2.157918      0.004546     -0.032474
  H      -0.062304     -0.811137      0.682708
  H      -0.089203     -0.185161     -1.042154
  H      -0.070879      0.995817      0.362353
  F      -2.009472     -0.004224      0.030796
6
Coordinates from ORCA-job neb_MEP_ALL E -600.130372661305
  C       0.054882      0.000119     -0.000946
  Cl      2.165067      0.004560     -0.032583
  H      -0.061366     -0.812543      0.683877
  H      -0.088307     -0.185475     -1.043966
  H      -0.069956      0.997543      0.362963
  F      -2.000321     -0.004204      0.030655
6
Coordinates from ORCA-job neb_MEP_ALL E -600.130464914061
  C       0.035922      0.000080     -0.000662
  Cl      2.172238      0.004573     -0.032689
  H      -0.060327     -0.813724      0.684855
  H      -0.087306     -0.185738     -1.045497
  H      -0.068929      0.998998      0.363470
  F      -1.991599     -0.004189      0.030523
6
Coordinates from ORCA-job neb_MEP_ALL E -600.130743242131
  C       0.017115      0.000044     -0.000391
  Cl      2.179333      0.004585     -0.032793
  H      -0.059241     -0.814724      0.685682
  H      -0.086256     -0.185960     -1.046788
  H      -0.067853      1.000230      0.363898
  F      -1.983097     -0.004175      0.030392
6
Coordinates from ORCA-job neb_MEP_ALL E -600.131231658575
  C      -0.001244      0.000002     -0.000096
  Cl      2.186218      0.004597     -0.032894
  H      -0.058140     -0.815534      0.686348
  H      -0.085190     -0.186143     -1.047865
  H      -0.066761      1.001240      0.364244
  F      -1.974882     -0.004161      0.030265
6
Coordinates from ORCA-job neb_MEP_ALL E -600.131860996127
  C      -0.019163     -0.000041      0.000177
  Cl      2.192886      0.004609     -0.032994
  H      -0.057043     -0.816179      0.686876
  H      -0.084114     -0.186287     -1.048719
  H      -0.065669      1.002046      0.364517
  F      -1.966897     -0.004148      0.030142
6
Coordinates from ORCA-job neb_MEP_ALL E -600.132869322552
  C      -0.039884     -0.000028     -0.000114
  Cl      2.200558      0.004619     -0.033085
  H      -0.055770     -0.816904      0.687493
  H      -0.082803     -0.186355     -1.049129
  H      -0.064386      1.002807      0.364794
  F      -1.957715     -0.004138      0.030041
6
Coordinates from ORCA-job neb_MEP_ALL E -600.134615406403
  C      -0.067975     -0.000283      0.001744
  Cl      2.210968      0.004646     -0.033278
  H      -0.053973     -0.816865      0.687402
  H      -0.081123     -0.186571     -1.050490
  H      -0.062620      1.003174      0.364854
  F      -1.945277     -0.004101      0.029768
6
Coordinates from ORCA-job neb_MEP_ALL E -600.149203816150
  C      -0.196915     -0.000355      0.002753
  Cl      2.256974      0.004752     -0.033943
  H      -0.046466     -0.814158      0.685025
  H      -0.073601     -0.185794     -1.046158
  H      -0.055090      0.999532      0.363440
  F      -1.884902     -0.003978      0.028883
6
Coordinates from ORCA-job neb_MEP_ALL E -600.161273845232
  C      -0.282034     -0.000459      0.003658
  Cl      2.292826      0.004828     -0.034411
  H      -0.043008     -0.808009      0.679784
  H      -0.069476     -0.184380     -1.038289
  H      -0.051389      0.991973      0.360619
  F      -1.846920     -0.003951      0.028639
6
Coordinates from ORCA-job neb_MEP_ALL E -600.168488477820
  C      -0.342466     -0.000855      0.005401
  Cl      2.332949      0.004990     -0.035316
  H      -0.042691     -0.799696      0.673172
  H      -0.069467     -0.182741     -1.028243
  H      -0.051091      0.982071      0.357481
  F      -1.827234     -0.003768      0.027505
6
Coordinates from ORCA-job neb_MEP_ALL E -600.171848375373
  C      -0.380277     -0.000843      0.006120
  Cl      2.377368      0.005038     -0.035718
  H      -0.045170     -0.793359      0.667360
  H      -0.073006     -0.180877     -1.018793
  H      -0.053897      0.973802      0.353888
  F      -1.825017     -0.003762      0.027142
6
Coordinates from ORCA-job neb_MEP_ALL E -600.173931563783
  C      -0.408929     -0.000787      0.005983
  Cl      2.430914      0.005137     -0.036861
  H      -0.051116     -0.786516      0.661650
  H      -0.075850     -0.179330     -1.010107
  H      -0.058929      0.965490      0.350901
  F      -1.836090     -0.003995      0.028435
6
Coordinates from ORCA-job neb_MEP_ALL E -600.175642696425
  C      -0.429894     -0.000981      0.006933
  Cl      2.508328      0.005613     -0.039815
  H      -0.065067     -0.783717      0.660752
  H      -0.088981     -0.179127     -1.005662
  H      -0.072594      0.961835      0.351372
  F      -1.851793     -0.003624      0.026419
6
Coordinates from ORCA-job neb_MEP_ALL E -600.176442881841
  C      -0.441820     -0.001019      0.007141
  Cl      2.567992      0.005802     -0.040625
  H      -0.077314     -0.784101      0.661040
  H      -0.101342     -0.179164     -1.005733
  H      -0.084774      0.962097      0.351462
  F      -1.862742     -0.003615      0.026715
6
Coordinates from ORCA-job neb_MEP_ALL E -600.176598261533
  C      -0.444744     -0.000951      0.007280
  Cl      2.584167      0.005499     -0.041295
  H      -0.082057     -0.784591      0.661935
  H      -0.105765     -0.179146     -1.006350
  H      -0.089907      0.963084      0.352090
  F      -1.861694     -0.003895      0.026340
6
Coordinates from ORCA-job neb_MEP_ALL E -600.173324335993
  C      -0.447880     -0.000906      0.007311
  Cl      2.503621      0.005236     -0.040176
  H      -0.071761     -0.788971      0.665567
  H      -0.095296     -0.179993     -1.012064
  H      -0.079752      0.968484      0.353839
  F      -1.808931     -0.003850      0.025522
6
Coordinates from ORCA-job neb_MEP_ALL E -600.134564299856
  C       0.308438      0.001548     -0.010576
  Cl      2.140610      0.002551     -0.019709
  H      -0.030064     -0.791634      0.657690
  H      -0.035298     -0.179551     -1.029714
  H      -0.031425      0.975489      0.344389
  F      -2.352262     -0.008402      0.057921
6
Coordinates from ORCA-job neb_MEP_ALL E -600.135272103254
  C       0.280757      0.001432     -0.009293
  Cl      2.129281      0.002662     -0.021236
  H      -0.045975     -0.782835      0.652131
  H      -0.053781     -0.177953     -1.017122
  H      -0.047982      0.964547      0.342569
  F      -2.262301     -0.007854      0.052952
6
Coordinates from ORCA-job neb_MEP_ALL E -600.134764314348
  C       0.241593      0.000400     -0.003168
  Cl      2.114251      0.004705     -0.033019
  H      -0.058016     -0.788818      0.664586
  H      -0.086288     -0.180204     -1.012261
  H      -0.067149      0.967973      0.353135
  F      -2.144391     -0.004056      0.030726
6
Coordinates from ORCA-job neb_MEP_ALL E -600.133896154116
  C       0.207234      0.000462     -0.003361
  Cl      2.115087      0.004426     -0.031567
  H      -0.063826     -0.794763      0.668812
  H      -0.089861     -0.181443     -1.021367
  H      -0.072099      0.975785      0.354945
  F      -2.096536     -0.004467      0.032537
6
Coordinates from ORCA-job neb_MEP_ALL E -600.133019909630
  C       0.178601      0.000373     -0.002774
  Cl      2.121446      0.004482     -0.031963
  H      -0.065008     -0.799555      0.673039
  H      -0.091664     -0.182546     -1.027191
  H      -0.073509      0.981568      0.357279
  F      -2.069867     -0.004323      0.031609
6
Coordinates from ORCA-job neb_MEP_ALL E -600.132256433929
  C       0.153802      0.000326     -0.002428
  Cl      2.129023      0.004486     -0.032020
  H      -0.065007     -0.803010      0.675907
  H      -0.091677     -0.183323     -1.031685
  H      -0.073503      0.985831      0.358775
  F      -2.052637     -0.004310      0.031450
6
Coordinates from ORCA-job neb_MEP_ALL E -600.131624788978
  C       0.132095      0.000282     -0.002099
  Cl      2.136537      0.004502     -0.032141
  H      -0.064498     -0.805622      0.678102
  H      -0.091247     -0.183917     -1.035045
  H      -0.073013      0.989041      0.359937
  F      -2.039874     -0.004287      0.031247
6
Coordinates from ORCA-job neb_MEP_ALL E -600.131100241747
  C       0.112149      0.000240     -0.001798
  Cl      2.143759      0.004516     -0.032252
  H      -0.063868     -0.807733      0.679869
  H      -0.090681     -0.184395     -1.037765
  H      -0.072407      0.991637      0.360868
  F      -2.028952     -0.004265      0.031079
6
Coordinates from ORCA-job neb_MEP_ALL E -600.130712892731
  C       0.092905      0.000200     -0.001512
  Cl      2.150848      0.004530     -0.032360
  H      -0.063126     -0.809539      0.681378
  H      -0.089994     -0.184801     -1.040091
  H      -0.071687      0.993853      0.361659
  F      -2.018946     -0.004242      0.030926
6
Coordinates from ORCA-job neb_MEP_ALL E -600.130463587637
  C       0.073905      0.000158     -0.001226
  Cl      2.157917      0.004545     -0.032468
  H      -0.062285     -0.811125      0.682699
  H      -0.089201     -0.185158     -1.042135
  H      -0.070865      0.995801      0.362350
  F      -2.009472     -0.004221      0.030781
6
Coordinates from ORCA-job neb_MEP_ALL E -600.130373157503
  C       0.054903      0.000118     -0.000942
  Cl      2.165045      0.004559     -0.032577
  H      -0.061349     -0.812526      0.683865
  H      -0.088309     -0.185472     -1.043942
  H      -0.069945      0.997522      0.362957
  F      -2.000345     -0.004201      0.030639
6
Coordinates from ORCA-job neb_MEP_ALL E -600.130460197765
  C       0.035983      0.000079     -0.000660
  Cl      2.172200      0.004572     -0.032683
  H      -0.060312     -0.813704      0.684841
  H      -0.087311     -0.185734     -1.045468
  H      -0.068920      0.998973      0.363464
  F      -1.991640     -0.004186      0.030506
6
Coordinates from ORCA-job neb_MEP_ALL E -600.130736906200
  C       0.017259      0.000043     -0.000386
  Cl      2.179263      0.004584     -0.032787
  H      -0.059231     -0.814699      0.685664
  H      -0.086267     -0.185955     -1.046756
  H      -0.067849      1.000199      0.363890
  F      -1.983175     -0.004172      0.030376
6
Coordinates from ORCA-job neb_MEP_ALL E -600.131208899254
  C      -0.000921     -0.000000     -0.000094
  Cl      2.186080      0.004596     -0.032888
  H      -0.058142     -0.815504      0.686325
  H      -0.085213     -0.186137     -1.047824
  H      -0.066769      1.001203      0.364233
  F      -1.975036     -0.004158      0.030248
6
Coordinates from ORCA-job neb_MEP_ALL E -600.131856446040
  C      -0.019131     -0.000024      0.000040
  Cl      2.192853      0.004608     -0.032986
  H      -0.057029     -0.816207      0.686908
  H      -0.084116     -0.186272     -1.048613
  H      -0.065660      1.002040      0.364525
  F      -1.966917     -0.004145      0.030125
6
Coordinates from ORCA-job neb_MEP_ALL E -600.132871996882
  C      -0.039783     -0.000114      0.000592
  Cl      2.200490      0.004621     -0.033098
  H      -0.055756     -0.816672      0.687268
  H      -0.082837     -0.186411     -1.049491
  H      -0.064381      1.002709      0.364726
  F      -1.957733     -0.004133      0.030004
6
Coordinates from ORCA-job neb_MEP_ALL E -600.134687378929
  C      -0.068306     -0.000126      0.001161
  Cl      2.211026      0.004640     -0.033259
  H      -0.053966     -0.817087      0.687598
  H      -0.081076     -0.186526     -1.050185
  H      -0.062600      1.003207      0.364883
  F      -1.945078     -0.004109      0.029802
6
Coordinates from ORCA-job neb_MEP_ALL E -600.149091535512
  C      -0.196415     -0.000381      0.002699
  Cl      2.256856      0.004746     -0.033934
  H      -0.046476     -0.814177      0.685062
  H      -0.073686     -0.185786     -1.046107
  H      -0.055123      0.999566      0.363470
  F      -1.885155     -0.003967      0.028809
6
Coordinates from ORCA-job neb_MEP_ALL E -600.161225556713
  C      -0.281858     -0.000480      0.003923
  Cl      2.292536      0.004817     -0.034378
  H      -0.042920     -0.808045      0.679775
  H      -0.069495     -0.184399     -1.038470
  H      -0.051341      0.992046      0.360599
  F      -1.846922     -0.003940      0.028550
6
Coordinates from ORCA-job neb_MEP_ALL E -600.168487675854
  C      -0.342875     -0.000825      0.005165
  Cl      2.331969      0.004967     -0.035215
  H      -0.042456     -0.799677      0.673050
  H      -0.068779     -0.182695     -1.028196
  H      -0.050719      0.982047      0.357346
  F      -1.827139     -0.003817      0.027850
6
Coordinates from ORCA-job neb_MEP_ALL E -600.171876216168
  C      -0.380463     -0.000837      0.006077
  Cl      2.377467      0.005051     -0.035769
  H      -0.045103     -0.793124      0.667378
  H      -0.072924     -0.180971     -1.018819
  H      -0.053823      0.973613      0.354089
  F      -1.825152     -0.003732      0.027044
6
Coordinates from ORCA-job neb_MEP_ALL E -600.173954504271
  C      -0.408414     -0.000806      0.006065
  Cl      2.431564      0.005135     -0.036801
  H      -0.051272     -0.786852      0.661916
  H      -0.076475     -0.179384     -1.010428
  H      -0.059221      0.965864      0.351020
  F      -1.836182     -0.003957      0.028229
6
Coordinates from ORCA-job neb_MEP_ALL E -600.175632114302
  C      -0.429713     -0.000971      0.006888
  Cl      2.508121      0.005586     -0.039665
  H      -0.065053     -0.783789      0.660717
  H      -0.088987     -0.179111     -1.005795
  H      -0.072586      0.961934      0.351289
  F      -1.851784     -0.003648      0.026567
6
Coordinates from ORCA-job neb_MEP_ALL E -600.176432786000
  C      -0.441810     -0.001017      0.007134
  Cl      2.567501      0.005792     -0.040593
  H      -0.077164     -0.784027      0.660987
  H      -0.101180     -0.179152     -1.005657
  H      -0.084622      0.962015      0.351442
  F      -1.862724     -0.003612      0.026687
6
Coordinates from ORCA-job neb_MEP_ALL E -600.176583715479
  C      -0.444618     -0.000949      0.007272
  Cl      2.583311      0.005488     -0.041249
  H      -0.081913     -0.784606      0.661932
  H      -0.105585     -0.179142     -1.006365
  H      -0.089755      0.963104      0.352078
  F      -1.861441     -0.003894      0.026332
6
Coordinates from ORCA-job neb_MEP_ALL E -600.173324335993
  C      -0.447880     -0.000905      0.007306
  Cl      2.503621      0.005230     -0.040149
  H      -0.071770     -0.788970      0.665567
  H      -0.095286     -0.179993     -1.012065
  H      -0.079753      0.968484      0.353838
  F      -1.808931     -0.003846      0.025503
6
Coordinates from ORCA-job neb_MEP_ALL E -600.134564299856
  C       0.308438      0.001548     -0.010576
  Cl      2.140610      0.002551     -0.019709
  H      -0.030064     -0.791634      0.657690
  H      -0.035298     -0.179551     -1.029714
  H      -0.031425      0.975489      0.344389
  F      -2.352262     -0.008402      0.057921
6
Coordinates from ORCA-job neb_MEP_ALL E -600.135281132450
  C       0.280598      0.001427     -0.009260
  Cl      2.129148      0.002669     -0.021294
  H      -0.046096     -0.782883      0.652210
  H      -0.054007     -0.177967     -1.017125
  H      -0.048140      0.964591      0.342630
  F      -2.261504     -0.007837      0.052839
6
Coordinates from ORCA-job neb_MEP_ALL E -600.134757859550
  C       0.241246      0.000420     -0.003277
  Cl      2.114369      0.004657     -0.032749
  H      -0.058092     -0.788938      0.664541
  H      -0.085967     -0.180215     -1.012687
  H      -0.067082      0.968208      0.353034
  F      -2.144475     -0.004131      0.031139
6
Coordinates from ORCA-job neb_MEP_ALL E -600.133888105660
  C       0.206848      0.000445     -0.003263
  Cl      2.115099      0.004450     -0.031727
  H      -0.063781     -0.794902      0.669034
  H      -0.090100     -0.181485     -1.021369
  H      -0.072158      0.975902      0.355116
  F      -2.095909     -0.004411      0.032209
6
Coordinates from ORCA-job neb_MEP_ALL E -600.133026826907
  C       0.178416      0.000376     -0.002792
  Cl      2.121353      0.004471     -0.031890
  H      -0.065107     -0.799462      0.672922
  H      -0.091692     -0.182517     -1.027115
  H      -0.073580      0.981467      0.357195
  F      -2.069390     -0.004335      0.031679
6
Coordinates from ORCA-job neb_MEP_ALL E -600.132256845745
  C       0.153556      0.000324     -0.002419
  Cl      2.129026      0.004486     -0.032004
  H      -0.064872     -0.802956      0.675862
  H      -0.091556     -0.183313     -1.031622
  H      -0.073361      0.985768      0.358754
  F      -2.052794     -0.004310      0.031430
6
Coordinates from ORCA-job neb_MEP_ALL E -600.131614612091
  C       0.131851      0.000279     -0.002088
  Cl      2.136588      0.004500     -0.032125
  H      -0.064424     -0.805597      0.678080
  H      -0.091194     -0.183912     -1.035020
  H      -0.072942      0.989015      0.359927
  F      -2.039879     -0.004284      0.031225
6
Coordinates from ORCA-job neb_MEP_ALL E -600.131106163709
  C       0.111875      0.000237     -0.001784
  Cl      2.143834      0.004513     -0.032238
  H      -0.063817     -0.807733      0.679870
  H      -0.090659     -0.184395     -1.037768
  H      -0.072365      0.991638      0.360869
  F      -2.028868     -0.004260      0.031051
6
Coordinates from ORCA-job neb_MEP_ALL E -600.130714972900
  C       0.092715      0.000195     -0.001493
  Cl      2.150899      0.004528     -0.032347
  H      -0.063084     -0.809541      0.681381
  H      -0.089987     -0.184804     -1.040100
  H      -0.071654      0.993859      0.361663
  F      -2.018889     -0.004237      0.030896
6
Coordinates from ORCA-job neb_MEP_ALL E -600.130462708678
  C       0.073835      0.000154     -0.001209
  Cl      2.157925      0.004543     -0.032455
  H      -0.062247     -0.811119      0.682697
  H      -0.089203     -0.185159     -1.042133
  H      -0.070838      0.995796      0.362351
  F      -2.009472     -0.004216      0.030748
6
Coordinates from ORCA-job neb_MEP_ALL E -600.130373558680
  C       0.054955      0.000112     -0.000920
  Cl      2.165004      0.004557     -0.032565
  H      -0.061316     -0.812507      0.683852
  H      -0.088319     -0.185471     -1.043928
  H      -0.069925      0.997504      0.362955
  F      -2.000400     -0.004196      0.030605
6
Coordinates from ORCA-job neb_MEP_ALL E -600.130457930766
  C       0.036128      0.000072     -0.000636
  Cl      2.172121      0.004571     -0.032671
  H      -0.060282     -0.813674      0.684820
  H      -0.087327     -0.185732     -1.045443
  H      -0.068904      0.998943      0.363459
  F      -1.991735     -0.004180      0.030471
6
Coordinates from ORCA-job neb_MEP_ALL E -600.130732071965
  C       0.017622      0.000033     -0.000354
  Cl      2.179100      0.004583     -0.032775
  H      -0.059214     -0.814654      0.685630
  H      -0.086294     -0.185951     -1.046721
  H      -0.067845      1.000155      0.363879
  F      -1.983368     -0.004166      0.030342
6
Coordinates from ORCA-job neb_MEP_ALL E -600.131197734538
  C      -0.000310     -0.000004     -0.000089
  Cl      2.185824      0.004596     -0.032875
  H      -0.058142     -0.815456      0.686291
  H      -0.085254     -0.186128     -1.047762
  H      -0.066781      1.001145      0.364219
  F      -1.975336     -0.004152      0.030216
6
Coordinates from ORCA-job neb_MEP_ALL E -600.131859325272
  C      -0.018987     -0.000032      0.000116
  Cl      2.192769      0.004609     -0.032977
  H      -0.056998     -0.816161      0.686871
  H      -0.084136     -0.186273     -1.048609
  H      -0.065642      1.001995      0.364512
  F      -1.967006     -0.004137      0.030086
6
Coordinates from ORCA-job neb_MEP_ALL E -600.132864180087
  C      -0.039576     -0.000128      0.000907
  Cl      2.200353      0.004624     -0.033100
  H      -0.055720     -0.816579      0.687179
  H      -0.082884     -0.186438     -1.049624
  H      -0.064366      1.002643      0.364696
  F      -1.957806     -0.004122      0.029942
6
Coordinates from ORCA-job neb_MEP_ALL E -600.134711377769
  C      -0.068721     -0.000067      0.000655
  Cl      2.211004      0.004636     -0.033232
  H      -0.053933     -0.817270      0.687753
  H      -0.081022     -0.186482     -1.049912
  H      -0.062556      1.003296      0.364920
  F      -1.944771     -0.004113      0.029816
6
Coordinates from ORCA-job neb_MEP_ALL E -600.149014594674
  C      -0.195300     -0.000415      0.002786
  Cl      2.256584      0.004739     -0.033928
  H      -0.046543     -0.814145      0.685059
  H      -0.073816     -0.185788     -1.046130
  H      -0.055210      0.999569      0.363488
  F      -1.885715     -0.003961      0.028726
6
Coordinates from ORCA-job neb_MEP_ALL E -600.161191420157
  C      -0.281356     -0.000605      0.004320
  Cl      2.292211      0.004813     -0.034374
  H      -0.042796     -0.808096      0.679799
  H      -0.069713     -0.184420     -1.038673
  H      -0.051326      0.992212      0.360628
  F      -1.847019     -0.003904      0.028301
6
Coordinates from ORCA-job neb_MEP_ALL E -600.168486559107
  C      -0.343470     -0.000657      0.004751
  Cl      2.330276      0.004927     -0.035021
  H      -0.042006     -0.799917      0.673008
  H      -0.067861     -0.182613     -1.028200
  H      -0.050162      0.982166      0.357104
  F      -1.826778     -0.003906      0.028359
6
Coordinates from ORCA-job neb_MEP_ALL E -600.171883183914
  C      -0.381433     -0.000840      0.005834
  Cl      2.377044      0.005077     -0.035852
  H      -0.044847     -0.792582      0.667240
  H      -0.072205     -0.181083     -1.018700
  H      -0.053416      0.973151      0.354320
  F      -1.825144     -0.003723      0.027159
6
Coordinates from ORCA-job neb_MEP_ALL E -600.173960442257
  C      -0.407594     -0.000870      0.006285
  Cl      2.432777      0.005145     -0.036712
  H      -0.051564     -0.787295      0.662334
  H      -0.077745     -0.179507     -1.010979
  H      -0.059797      0.966404      0.351279
  F      -1.836077     -0.003876      0.027793
6
Coordinates from ORCA-job neb_MEP_ALL E -600.175628048304
  C      -0.429257     -0.000948      0.006800
  Cl      2.507700      0.005539     -0.039367
  H      -0.065000     -0.784010      0.660695
  H      -0.089073     -0.179088     -1.006133
  H      -0.072580      0.962211      0.351134
  F      -1.851791     -0.003704      0.026871
6
Coordinates from ORCA-job neb_MEP_ALL E -600.176430311548
  C      -0.441727     -0.001015      0.007119
  Cl      2.566396      0.005779     -0.040538
  H      -0.076845     -0.783894      0.660882
  H      -0.100850     -0.179129     -1.005527
  H      -0.084308      0.961873      0.351396
  F      -1.862667     -0.003615      0.026668
6
Coordinates from ORCA-job neb_MEP_ALL E -600.176573289219
  C      -0.444346     -0.000946      0.007261
  Cl      2.581341      0.005472     -0.041179
  H      -0.081549     -0.784646      0.661938
  H      -0.105170     -0.179137     -1.006409
  H      -0.089385      0.963155      0.352060
  F      -1.860892     -0.003899      0.026330
6
Coordinates from ORCA-job neb_MEP_ALL E -600.173324335993
  C      -0.447881     -0.000904      0.007301
  Cl      2.503622      0.005227     -0.040118
  H      -0.071779     -0.788970      0.665566
  H      -0.095274     -0.179993     -1.012066
  H      -0.079756      0.968484      0.353837
  F      -1.808932     -0.003844      0.025481
6
Coordinates from ORCA-job neb_MEP_ALL E -600.134564299856
  C       0.308438      0.001548     -0.010576
  Cl      2.140610      0.002551     -0.019709
  H      -0.030064     -0.791634      0.657690
  H      -0.035298     -0.179551     -1.029714
  H      -0.031425      0.975489      0.344389
  F      -2.352262     -0.008402      0.057921
6
Coordinates from ORCA-job neb_MEP_ALL E -600.135283427577
  C       0.280357      0.001420     -0.009209
  Cl      2.128928      0.002681     -0.021389
  H      -0.046300     -0.782971      0.652347
  H      -0.054382     -0.177992     -1.017136
  H      -0.048403      0.964671      0.342735
  F      -2.260200     -0.007810      0.052652
6
Coordinates from ORCA-job neb_MEP_ALL E -600.134756288766
  C       0.240670      0.000449     -0.003437
  Cl      2.114463      0.004587     -0.032368
  H      -0.058232     -0.789108      0.664479
  H      -0.085544     -0.180229     -1.013278
  H      -0.067020      0.968538      0.352891
  F      -2.144337     -0.004237      0.031713
6
Coordinates from ORCA-job neb_MEP_ALL E -600.133868233163
  C       0.206285      0.000427     -0.003152
  Cl      2.115058      0.004475     -0.031896
  H      -0.063793     -0.794989      0.669221
  H      -0.090431     -0.181513     -1.021276
  H      -0.072287      0.975945      0.355273
  F      -2.094832     -0.004345      0.031829
6
Coordinates from ORCA-job neb_MEP_ALL E -600.133021465039
  C       0.177943      0.000379     -0.002812
  Cl      2.121309      0.004459     -0.031804
  H      -0.065115     -0.799394      0.672826
  H      -0.091631     -0.182495     -1.027075
  H      -0.073552      0.981399      0.357122
  F      -2.068955     -0.004348      0.031744
6
Coordinates from ORCA-job neb_MEP_ALL E -600.132253003462
  C       0.153206      0.000323     -0.002411
  Cl      2.129084      0.004484     -0.031981
  H      -0.064724     -0.802938      0.675848
  H      -0.091435     -0.183310     -1.031600
  H      -0.073208      0.985749      0.358749
  F      -2.052922     -0.004308      0.031395
6
Coordinates from ORCA-job neb_MEP_ALL E -600.131616771724
  C       0.131484      0.000278     -0.002079
  Cl      2.136693      0.004495     -0.032102
  H      -0.064343     -0.805612      0.678095
  H      -0.091151     -0.183916     -1.035035
  H      -0.072870      0.989034      0.359935
  F      -2.039813     -0.004279      0.031186
6
Coordinates from ORCA-job neb_MEP_ALL E -600.131092845391
  C       0.111496      0.000234     -0.001770
  Cl      2.143953      0.004509     -0.032217
  H      -0.063755     -0.807771      0.679905
  H      -0.090646     -0.184404     -1.037812
  H      -0.072316      0.991684      0.360889
  F      -2.028732     -0.004252      0.031005
6
Coordinates from ORCA-job neb_MEP_ALL E -600.130707546003
  C       0.092437      0.000193     -0.001482
  Cl      2.150986      0.004525     -0.032327
  H      -0.063027     -0.809577      0.681416
  H      -0.089984     -0.184812     -1.040136
  H      -0.071613      0.993900      0.361683
  F      -2.018798     -0.004229      0.030846
6
Coordinates from ORCA-job neb_MEP_ALL E -600.130464228093
  C       0.073726      0.000151     -0.001196
  Cl      2.157947      0.004539     -0.032435
  H      -0.062195     -0.811139      0.682719
  H      -0.089211     -0.185165     -1.042151
  H      -0.070804      0.995819      0.362367
  F      -2.009464     -0.004207      0.030696
6
Coordinates from ORCA-job neb_MEP_ALL E -600.130371453577
  C       0.055044      0.000110     -0.000909
  Cl      2.164948      0.004554     -0.032544
  H      -0.061271     -0.812507      0.683858
  H      -0.088338     -0.185473     -1.043920
  H      -0.069899      0.997503      0.362962
  F      -2.000484     -0.004187      0.030552
6
Coordinates from ORCA-job neb_MEP_ALL E -600.130460555718
  C       0.036410      0.000071     -0.000629
  Cl      2.171988      0.004567     -0.032650
  H      -0.060247     -0.813660      0.684816
  H      -0.087358     -0.185731     -1.045414
  H      -0.068888      0.998923      0.363461
  F      -1.991906     -0.004171      0.030417
6
Coordinates from ORCA-job neb_MEP_ALL E -600.130721081195
  C       0.018253      0.000033     -0.000356
  Cl      2.178834      0.004580     -0.032753
  H      -0.059198     -0.814625      0.685614
  H      -0.086343     -0.185946     -1.046669
  H      -0.067849      1.000115      0.363875
  F      -1.983696     -0.004156      0.030289
6
Coordinates from ORCA-job neb_MEP_ALL E -600.131171516294
  C       0.000512     -0.000009     -0.000074
  Cl      2.185486      0.004593     -0.032854
  H      -0.058138     -0.815415      0.686264
  H      -0.085313     -0.186124     -1.047713
  H      -0.066795      1.001097      0.364212
  F      -1.975752     -0.004142      0.030165
6
Coordinates from ORCA-job neb_MEP_ALL E -600.131845230231
  C      -0.018614     -0.000031      0.000070
  Cl      2.192599      0.004608     -0.032956
  H      -0.056966     -0.816156      0.686875
  H      -0.084168     -0.186265     -1.048535
  H      -0.065628      1.001970      0.364515
  F      -1.967224     -0.004126      0.030032
6
Coordinates from ORCA-job neb_MEP_ALL E -600.132850269385
  C      -0.039367     -0.000168      0.001048
  Cl      2.200226      0.004626     -0.033090
  H      -0.055661     -0.816526      0.687141
  H      -0.082929     -0.186449     -1.049659
  H      -0.064336      1.002623      0.364699
  F      -1.957933     -0.004105      0.029860
6
Coordinates from ORCA-job neb_MEP_ALL E -600.134748662273
  C      -0.069165     -0.000002      0.000624
  Cl      2.210983      0.004637     -0.033218
  H      -0.053839     -0.817331      0.687798
  H      -0.081013     -0.186484     -1.049867
  H      -0.062481      1.003282      0.364920
  F      -1.944485     -0.004101      0.029742
6
Coordinates from ORCA-job neb_MEP_ALL E -600.148868952225
  C      -0.193517     -0.000434      0.002790
  Cl      2.255995      0.004728     -0.033916
  H      -0.046655     -0.814190      0.685114
  H      -0.073942     -0.185798     -1.046211
  H      -0.055322      0.999657      0.363529
  F      -1.886560     -0.003963      0.028694
6
Coordinates from ORCA-job neb_MEP_ALL E -600.161116933026
  C      -0.280424     -0.000591      0.004346
  Cl      2.292020      0.004804     -0.034401
  H      -0.042721     -0.808234      0.679968
  H      -0.070104     -0.184422     -1.038624
  H      -0.051412      0.992309      0.360718
  F      -1.847359     -0.003866      0.027993
6
Coordinates from ORCA-job neb_MEP_ALL E -600.168462281958
  C      -0.343616     -0.000723      0.004913
  Cl      2.328844      0.004877     -0.034816
  H      -0.041634     -0.800039      0.672827
  H      -0.067442     -0.182521     -1.028317
  H      -0.049789      0.982349      0.356822
  F      -1.826363     -0.003943      0.028571
6
Coordinates from ORCA-job neb_MEP_ALL E -600.171910278067
  C      -0.383080     -0.000747      0.005450
  Cl      2.376067      0.005086     -0.035885
  H      -0.044428     -0.791904      0.666834
  H      -0.070824     -0.181096     -1.018300
  H      -0.052707      0.972431      0.354279
  F      -1.825029     -0.003770      0.027622
6
Coordinates from ORCA-job neb_MEP_ALL E -600.173976923197
  C      -0.407224     -0.000912      0.006392
  Cl      2.434187      0.005162     -0.036618
  H      -0.051820     -0.787558      0.662739
  H      -0.079158     -0.179681     -1.011461
  H      -0.060385      0.966759      0.351650
  F      -1.835600     -0.003770      0.027297
6
Coordinates from ORCA-job neb_MEP_ALL E -600.175616412738
  C      -0.428607     -0.000934      0.006719
  Cl      2.507032      0.005465     -0.038911
  H      -0.064879     -0.784363      0.660692
  H      -0.089351     -0.179067     -1.006690
  H      -0.072584      0.962669      0.350929
  F      -1.851612     -0.003770      0.027260
6
Coordinates from ORCA-job neb_MEP_ALL E -600.176416698722
  C      -0.441489     -0.001007      0.007088
  Cl      2.564547      0.005751     -0.040430
  H      -0.076353     -0.783771      0.660761
  H      -0.100365     -0.179099     -1.005435
  H      -0.083830      0.961753      0.351323
  F      -1.862509     -0.003627      0.026693
6
Coordinates from ORCA-job neb_MEP_ALL E -600.176556200351
  C      -0.443774     -0.000940      0.007244
  Cl      2.577984      0.005446     -0.041081
  H      -0.080927     -0.784691      0.661939
  H      -0.104486     -0.179127     -1.006462
  H      -0.088758      0.963217      0.352033
  F      -1.860040     -0.003904      0.026327
6
Coordinates from ORCA-job neb_MEP_ALL E -600.173324335993
  C      -0.447881     -0.000903      0.007295
  Cl      2.503622      0.005219     -0.040084
  H      -0.071791     -0.788970      0.665565
  H      -0.095261     -0.179992     -1.012067
  H      -0.079758      0.968484      0.353836
  F      -1.808932     -0.003838      0.025456
6
Coordinates from ORCA-job neb_MEP_ALL E -600.134564299856
  C       0.308438      0.001548     -0.010576
  Cl      2.140610      0.002551     -0.019709
  H      -0.030064     -0.791634      0.657690
  H      -0.035298     -0.179551     -1.029714
  H      -0.031425      0.975489      0.344389
  F      -2.352262     -0.008402      0.057921
6
Coordinates from ORCA-job neb_MEP_ALL E -600.135286617398
  C       0.279769      0.001406     -0.009100
  Cl      2.128476      0.002708     -0.021599
  H      -0.046711     -0.783109      0.652605
  H      -0.055170     -0.178034     -1.017091
  H      -0.048944      0.964779      0.342942
  F      -2.257420     -0.007749      0.052243
6
Coordinates from ORCA-job neb_MEP_ALL E -600.134749363597
  C       0.239427      0.000501     -0.003717
  Cl      2.114481      0.004460     -0.031682
  H      -0.058582     -0.789361      0.664321
  H      -0.084876     -0.180238     -1.014267
  H      -0.067006      0.969067      0.352605
  F      -2.143444     -0.004428      0.032739
6
Coordinates from ORCA-job neb_MEP_ALL E -600.133844620348
  C       0.205106      0.000403     -0.003006
  Cl      2.114964      0.004504     -0.032082
  H      -0.063902     -0.795081      0.669437
  H      -0.090955     -0.181544     -1.021127
  H      -0.072543      0.975976      0.355455
  F      -2.092670     -0.004258      0.031322
6
Coordinates from ORCA-job neb_MEP_ALL E -600.132998787648
  C       0.176823      0.000380     -0.002822
  Cl      2.121445      0.004446     -0.031692
  H      -0.064966     -0.799489      0.672868
  H      -0.091437     -0.182512     -1.027257
  H      -0.073357      0.981538      0.357124
  F      -2.068508     -0.004362      0.031779
6
Coordinates from ORCA-job neb_MEP_ALL E -600.132244977670
  C       0.152516      0.000319     -0.002395
  Cl      2.129302      0.004477     -0.031938
  H      -0.064553     -0.803024      0.675926
  H      -0.091336     -0.183331     -1.031701
  H      -0.073045      0.985858      0.358794
  F      -2.052884     -0.004300      0.031314
6
Coordinates from ORCA-job neb_MEP_ALL E -600.131610454351
  C       0.130807      0.000274     -0.002052
  Cl      2.136928      0.004487     -0.032060
  H      -0.064236     -0.805724      0.678194
  H      -0.091138     -0.183941     -1.035167
  H      -0.072791      0.989169      0.359991
  F      -2.039568     -0.004264      0.031093
6
Coordinates from ORCA-job neb_MEP_ALL E -600.131084522158
  C       0.110761      0.000231     -0.001752
  Cl      2.144205      0.004503     -0.032178
  H      -0.063650     -0.807886      0.680011
  H      -0.090646     -0.184429     -1.037932
  H      -0.072242      0.991817      0.360948
  F      -2.028429     -0.004235      0.030903
6
Coordinates from ORCA-job neb_MEP_ALL E -600.130701340745
  C       0.091873      0.000184     -0.001444
  Cl      2.151179      0.004520     -0.032290
  H      -0.062921     -0.809668      0.681502
  H      -0.089996     -0.184836     -1.040242
  H      -0.071541      0.994011      0.361736
  F      -2.018594     -0.004210      0.030738
6
Coordinates from ORCA-job neb_MEP_ALL E -600.130459585823
  C       0.073523      0.000145     -0.001168
  Cl      2.158001      0.004533     -0.032397
  H      -0.062096     -0.811190      0.682776
  H      -0.089237     -0.185180     -1.042202
  H      -0.070742      0.995881      0.362405
  F      -2.009449     -0.004189      0.030587
6
Coordinates from ORCA-job neb_MEP_ALL E -600.130374747739
  C       0.055250      0.000103     -0.000881
  Cl      2.164843      0.004547     -0.032506
  H      -0.061191     -0.812522      0.683886
  H      -0.088386     -0.185481     -1.043928
  H      -0.069857      0.997521      0.362987
  F      -2.000659     -0.004169      0.030443
6
Coordinates from ORCA-job neb_MEP_ALL E -600.130460264912
  C       0.037105      0.000060     -0.000594
  Cl      2.171691      0.004561     -0.032610
  H      -0.060189     -0.813639      0.684815
  H      -0.087433     -0.185734     -1.045392
  H      -0.068870      0.998904      0.363474
  F      -1.992304     -0.004152      0.030308
6
Coordinates from ORCA-job neb_MEP_ALL E -600.130717473809
  C       0.019637      0.000014     -0.000296
  Cl      2.178272      0.004575     -0.032712
  H      -0.059179     -0.814560      0.685575
  H      -0.086460     -0.185946     -1.046624
  H      -0.067869      1.000054      0.363873
  F      -1.984401     -0.004137      0.030184
6
Coordinates from ORCA-job neb_MEP_ALL E -600.131149684096
  C       0.001998      0.000010     -0.000158
  Cl      2.184888      0.004588     -0.032809
  H      -0.058131     -0.815402      0.686275
  H      -0.085428     -0.186113     -1.047592
  H      -0.066823      1.001041      0.364220
  F      -1.976505     -0.004123      0.030064
6
Coordinates from ORCA-job neb_MEP_ALL E -600.131826780684
  C      -0.017604     -0.000118      0.000874
  Cl      2.192187      0.004606     -0.032938
  H      -0.056910     -0.815895      0.686642
  H      -0.084279     -0.186337     -1.048949
  H      -0.065617      1.001848      0.364457
  F      -1.967777     -0.004104      0.029913
6
Coordinates from ORCA-job neb_MEP_ALL E -600.132835206097
  C      -0.039053      0.000203     -0.000661
  Cl      2.200056      0.004618     -0.033024
  H      -0.055579     -0.817135      0.687741
  H      -0.082942     -0.186318     -1.048677
  H      -0.064286      1.002720      0.364849
  F      -1.958196     -0.004087      0.029772
6
Coordinates from ORCA-job neb_MEP_ALL E -600.134782110333
  C      -0.069523     -0.000635      0.000941
  Cl      2.210968      0.004656     -0.033191
  H      -0.053654     -0.817047      0.687596
  H      -0.081056     -0.186481     -1.049922
  H      -0.062360      1.003555      0.365035
  F      -1.944375     -0.004048      0.029541
6
Coordinates from ORCA-job neb_MEP_ALL E -600.148622555332
  C      -0.189741     -0.000317      0.003192
  Cl      2.254507      0.004732     -0.033884
  H      -0.046840     -0.814316      0.685204
  H      -0.074107     -0.185894     -1.046734
  H      -0.055507      0.999780      0.363564
  F      -1.888312     -0.003985      0.028658
6
Coordinates from ORCA-job neb_MEP_ALL E -600.161006425657
  C      -0.278357     -0.000938      0.004760
  Cl      2.291632      0.004819     -0.034495
  H      -0.042838     -0.808217      0.680076
  H      -0.070563     -0.184482     -1.038929
  H      -0.051609      0.992646      0.360947
  F      -1.848265     -0.003828      0.027640
6
Coordinates from ORCA-job neb_MEP_ALL E -600.168428705768
  C      -0.342878     -0.000149      0.004118
  Cl      2.328059      0.004825     -0.034621
  H      -0.041148     -0.800809      0.673286
  H      -0.068099     -0.182373     -1.027801
  H      -0.049799      0.982484      0.356660
  F      -1.826135     -0.003977      0.028357
6
Coordinates from ORCA-job neb_MEP_ALL E -600.171929064115
  C      -0.385303     -0.000985      0.005463
  Cl      2.374688      0.005077     -0.035798
  H      -0.043890     -0.790675      0.665633
  H      -0.068712     -0.180886     -1.017447
  H      -0.051652      0.971339      0.353684
  F      -1.825131     -0.003870      0.028464
6
Coordinates from ORCA-job neb_MEP_ALL E -600.174004591887
  C      -0.407872     -0.000927      0.006442
  Cl      2.436470      0.005218     -0.036494
  H      -0.052030     -0.787201      0.662833
  H      -0.080578     -0.179919     -1.011690
  H      -0.060937      0.966476      0.352074
  F      -1.835053     -0.003647      0.026835
6
Coordinates from ORCA-job neb_MEP_ALL E -600.175603003357
  C      -0.427511     -0.000898      0.006542
  Cl      2.505561      0.005341     -0.037997
  H      -0.064483     -0.784946      0.660671
  H      -0.090148     -0.179045     -1.007679
  H      -0.072572      0.963430      0.350583
  F      -1.850848     -0.003882      0.027880
6
Coordinates from ORCA-job neb_MEP_ALL E -600.176400010665
  C      -0.440749     -0.000995      0.007017
  Cl      2.560440      0.005695     -0.040124
  H      -0.075344     -0.783694      0.660582
  H      -0.099491     -0.179050     -1.005486
  H      -0.082897      0.961723      0.351161
  F      -1.861959     -0.003680      0.026851
6
Coordinates from ORCA-job neb_MEP_ALL E -600.176523140802
  C      -0.442369     -0.000935      0.007211
  Cl      2.570483      0.005408     -0.040892
  H      -0.079531     -0.784762      0.661937
  H      -0.103005     -0.179109     -1.006557
  H      -0.087375      0.963324      0.351985
  F      -1.858202     -0.003926      0.026315
6
Coordinates from ORCA-job neb_MEP_ALL E -600.173324335993
  C      -0.447881     -0.000903      0.007285
  Cl      2.503623      0.005222     -0.040031
  H      -0.071804     -0.788970      0.665563
  H      -0.095239     -0.179992     -1.012069
  H      -0.079767      0.968484      0.353834
  F      -1.808933     -0.003840      0.025418
6
Coordinates from ORCA-job neb_MEP_ALL E -600.134564299856
  C       0.308438      0.001548     -0.010576
  Cl      2.140610      0.002551     -0.019709
  H      -0.030064     -0.791634      0.657690
  H      -0.035298     -0.179551     -1.029714
  H      -0.031425      0.975489      0.344389
  F      -2.352262     -0.008402      0.057921
6
Coordinates from ORCA-job neb_MEP_ALL E -600.135283604584
  C       0.279501      0.001400     -0.009057
  Cl      2.128311      0.002719     -0.021684
  H      -0.046859     -0.783139      0.652686
  H      -0.055470     -0.178045     -1.017037
  H      -0.049145      0.964790      0.343014
  F      -2.256337     -0.007725      0.052078
6
Coordinates from ORCA-job neb_MEP_ALL E -600.134737207784
  C       0.238952      0.000519     -0.003811
  Cl      2.114430      0.004418     -0.031459
  H      -0.058743     -0.789423      0.664253
  H      -0.084703     -0.180234     -1.014553
  H      -0.067046      0.969212      0.352502
  F      -2.142889     -0.004491      0.033068
6
Coordinates from ORCA-job neb_MEP_ALL E -600.133810342862
  C       0.204644      0.000399     -0.002979
  Cl      2.114942      0.004508     -0.032100
  H      -0.063952     -0.795107      0.669481
  H      -0.091082     -0.181550     -1.021112
  H      -0.072617      0.975993      0.355488
  F      -2.091936     -0.004242      0.031222
6
Coordinates from ORCA-job neb_MEP_ALL E -600.132975553062
  C       0.176351      0.000379     -0.002819
  Cl      2.121577      0.004443     -0.031672
  H      -0.064875     -0.799595      0.672957
  H      -0.091361     -0.182537     -1.027396
  H      -0.073259      0.981672      0.357172
  F      -2.068433     -0.004362      0.031759
6
Coordinates from ORCA-job neb_MEP_ALL E -600.132221848908
  C       0.152265      0.000320     -0.002390
  Cl      2.129413      0.004474     -0.031924
  H      -0.064533     -0.803098      0.675992
  H      -0.091348     -0.183347     -1.031787
  H      -0.073033      0.985947      0.358830
  F      -2.052763     -0.004295      0.031279
6
Coordinates from ORCA-job neb_MEP_ALL E -600.131583228705
  C       0.130560      0.000274     -0.002051
  Cl      2.137023      0.004484     -0.032047
  H      -0.064212     -0.805785      0.678250
  H      -0.091153     -0.183954     -1.035227
  H      -0.072779      0.989238      0.360020
  F      -2.039439     -0.004258      0.031055
6
Coordinates from ORCA-job neb_MEP_ALL E -600.131076052516
  C       0.110496      0.000230     -0.001744
  Cl      2.144303      0.004501     -0.032166
  H      -0.063616     -0.807935      0.680057
  H      -0.090654     -0.184441     -1.037983
  H      -0.072220      0.991874      0.360974
  F      -2.028309     -0.004228      0.030862
6
Coordinates from ORCA-job neb_MEP_ALL E -600.130690468825
  C       0.091669      0.000185     -0.001446
  Cl      2.151253      0.004517     -0.032278
  H      -0.062885     -0.809707      0.681541
  H      -0.090003     -0.184844     -1.040270
  H      -0.071517      0.994051      0.361758
  F      -2.018516     -0.004203      0.030696
6
Coordinates from ORCA-job neb_MEP_ALL E -600.130465475499
  C       0.073442      0.000146     -0.001169
  Cl      2.158027      0.004531     -0.032385
  H      -0.062062     -0.811214      0.682801
  H      -0.089248     -0.185184     -1.042213
  H      -0.070721      0.995903      0.362421
  F      -2.009438     -0.004182      0.030545
6
Coordinates from ORCA-job neb_MEP_ALL E -600.130366526199
  C       0.055340      0.000106     -0.000889
  Cl      2.164803      0.004545     -0.032492
  H      -0.061165     -0.812534      0.683903
  H      -0.088406     -0.185483     -1.043922
  H      -0.069845      0.997529      0.362998
  F      -2.000726     -0.004162      0.030401
6
Coordinates from ORCA-job neb_MEP_ALL E -600.130444694254
  C       0.037411      0.000065     -0.000610
  Cl      2.171568      0.004559     -0.032596
  H      -0.060175     -0.813642      0.684825
  H      -0.087465     -0.185733     -1.045368
  H      -0.068869      0.998898      0.363481
  F      -1.992470     -0.004146      0.030268
6
Coordinates from ORCA-job neb_MEP_ALL E -600.130681222255
  C       0.020166      0.000024     -0.000332
  Cl      2.178064      0.004572     -0.032695
  H      -0.059179     -0.814561      0.685585
  H      -0.086504     -0.185942     -1.046580
  H      -0.067882      1.000038      0.363878
  F      -1.984666     -0.004130      0.030145
6
Coordinates from ORCA-job neb_MEP_ALL E -600.131102300745
  C       0.002507     -0.000002     -0.000114
  Cl      2.184689      0.004586     -0.032795
  H      -0.058127     -0.815380      0.686262
  H      -0.085475     -0.186117     -1.047599
  H      -0.066834      1.001029      0.364223
  F      -1.976760     -0.004116      0.030024
6
Coordinates from ORCA-job neb_MEP_ALL E -600.131792238166
  C      -0.017187     -0.000073      0.000463
  Cl      2.192022      0.004603     -0.032913
  H      -0.056910     -0.816020      0.686773
  H      -0.084301     -0.186303     -1.048708
  H      -0.065625      1.001891      0.364503
  F      -1.967999     -0.004098      0.029882
6
Coordinates from ORCA-job neb_MEP_ALL E -600.132818244427
  C      -0.039044      0.000002      0.000150
  Cl      2.200059      0.004621     -0.033026
  H      -0.055536     -0.816854      0.687483
  H      -0.082967     -0.186385     -1.049129
  H      -0.064262      1.002692      0.364807
  F      -1.958251     -0.004075      0.029716
6
Coordinates from ORCA-job neb_MEP_ALL E -600.134805427394
  C      -0.069529     -0.000270      0.000829
  Cl      2.210991      0.004651     -0.033192
  H      -0.053593     -0.817209      0.687743
  H      -0.081087     -0.186497     -1.049857
  H      -0.062329      1.003365      0.365002
  F      -1.944453     -0.004040      0.029475
6
Coordinates from ORCA-job neb_MEP_ALL E -600.148092495531
  C      -0.188280     -0.000414      0.002982
  Cl      2.253860      0.004722     -0.033853
  H      -0.046883     -0.814440      0.685320
  H      -0.074166     -0.185899     -1.046762
  H      -0.055538      1.000002      0.363653
  F      -1.888993     -0.003972      0.028659
6
Coordinates from ORCA-job neb_MEP_ALL E -600.160747571638
  C      -0.277532     -0.000734      0.004490
  Cl      2.291422      0.004804     -0.034489
  H      -0.042898     -0.808378      0.680260
  H      -0.070637     -0.184498     -1.038883
  H      -0.051689      0.992639      0.361006
  F      -1.848666     -0.003832      0.027615
6
Coordinates from ORCA-job neb_MEP_ALL E -600.168351535451
  C      -0.342290     -0.000477      0.004788
  Cl      2.328382      0.004810     -0.034620
  H      -0.041263     -0.800610      0.673146
  H      -0.068574     -0.182398     -1.028031
  H      -0.049984      0.982589      0.356702
  F      -1.826271     -0.003913      0.028015
6
Coordinates from ORCA-job neb_MEP_ALL E -600.171957074508
  C      -0.385774     -0.000827      0.005258
  Cl      2.374596      0.005047     -0.035710
  H      -0.043740     -0.790601      0.665389
  H      -0.068341     -0.180747     -1.016999
  H      -0.051466      0.971041      0.353365
  F      -1.825275     -0.003914      0.028698
6
Coordinates from ORCA-job neb_MEP_ALL E -600.174064680808
  C      -0.408529     -0.000924      0.006329
  Cl      2.437166      0.005223     -0.036450
  H      -0.052017     -0.786860      0.662673
  H      -0.080634     -0.179953     -1.011518
  H      -0.060923      0.966134      0.352119
  F      -1.835063     -0.003620      0.026846
6
Coordinates from ORCA-job neb_MEP_ALL E -600.175572799063
  C      -0.427210     -0.000899      0.006506
  Cl      2.504955      0.005285     -0.037650
  H      -0.064285     -0.785058      0.660618
  H      -0.090474     -0.179045     -1.007988
  H      -0.072530      0.963615      0.350472
  F      -1.850454     -0.003899      0.028041
6
Coordinates from ORCA-job neb_MEP_ALL E -600.176353059342
  C      -0.440384     -0.000984      0.006976
  Cl      2.558770      0.005653     -0.039954
  H      -0.074965     -0.783724      0.660536
  H      -0.099211     -0.179035     -1.005586
  H      -0.082555      0.961785      0.351089
  F      -1.861655     -0.003695      0.026938
6
Coordinates from ORCA-job neb_MEP_ALL E -600.176437478065
  C      -0.441747     -0.000929      0.007196
  Cl      2.567426      0.005379     -0.040808
  H      -0.078978     -0.784780      0.661935
  H      -0.102421     -0.179102     -1.006587
  H      -0.086820      0.963355      0.351969
  F      -1.857460     -0.003922      0.026295
6
Coordinates from ORCA-job neb_MEP_ALL E -600.173324335993
  C      -0.447881     -0.000901      0.007280
  Cl      2.503624      0.005209     -0.040001
  H      -0.071816     -0.788969      0.665563
  H      -0.095228     -0.179992     -1.012070
  H      -0.079766      0.968485      0.353833
  F      -1.808933     -0.003831      0.025396
6
Coordinates from ORCA-job neb_MEP_ALL E -600.134564299856
  C       0.308438      0.001548     -0.010576
  Cl      2.140610      0.002551     -0.019709
  H      -0.030064     -0.791634      0.657690
  H      -0.035298     -0.179551     -1.029714
  H      -0.031425      0.975489      0.344389
  F      -2.352262     -0.008402      0.057921
6
Coordinates from ORCA-job neb_MEP_ALL E -600.135290911850
  C       0.278663      0.001382     -0.008927
  Cl      2.127835      0.002753     -0.021942
  H      -0.047284     -0.783203      0.652911
  H      -0.056355     -0.178073     -1.016844
  H      -0.049730      0.964792      0.343219
  F      -2.253129     -0.007651      0.051583
6
Coordinates from ORCA-job neb_MEP_ALL E -600.134724064976
  C       0.237550      0.000567     -0.004067
  Cl      2.114239      0.004301     -0.030844
  H      -0.059252     -0.789582      0.664056
  H      -0.084291     -0.180220     -1.015325
  H      -0.067225      0.969596      0.352212
  F      -2.141021     -0.004662      0.033970
6
Coordinates from ORCA-job neb_MEP_ALL E -600.133787974282
  C       0.203266      0.000388     -0.002922
  Cl      2.114942      0.004513     -0.032118
  H      -0.064074     -0.795249      0.669643
  H      -0.091371     -0.181584     -1.021195
  H      -0.072782      0.976138      0.355595
  F      -2.089980     -0.004206      0.030997
6
Coordinates from ORCA-job neb_MEP_ALL E -600.132959758300
  C       0.175001      0.000377     -0.002803
  Cl      2.122012      0.004437     -0.031630
  H      -0.064638     -0.799932      0.673249
  H      -0.091192     -0.182615     -1.027824
  H      -0.073016      0.982092      0.357333
  F      -2.068167     -0.004359      0.031675
6
Coordinates from ORCA-job neb_MEP_ALL E -600.132230867784
  C       0.151486      0.000320     -0.002372
  Cl      2.129750      0.004464     -0.031887
  H      -0.064490     -0.803314      0.676183
  H      -0.091408     -0.183394     -1.032031
  H      -0.073022      0.986202      0.358933
  F      -2.052317     -0.004279      0.031174
6
Coordinates from ORCA-job neb_MEP_ALL E -600.131586819876
  C       0.129804      0.000273     -0.002039
  Cl      2.137311      0.004477     -0.032013
  H      -0.064141     -0.805946      0.678400
  H      -0.091198     -0.183987     -1.035389
  H      -0.072744      0.989422      0.360103
  F      -2.039033     -0.004238      0.030939
6
Coordinates from ORCA-job neb_MEP_ALL E -600.131067858249
  C       0.109730      0.000226     -0.001720
  Cl      2.144585      0.004496     -0.032135
  H      -0.063517     -0.808067      0.680182
  H      -0.090680     -0.184471     -1.038115
  H      -0.072157      0.992023      0.361047
  F      -2.027961     -0.004207      0.030741
6
Coordinates from ORCA-job neb_MEP_ALL E -600.130699349967
  C       0.091058      0.000187     -0.001443
  Cl      2.151472      0.004512     -0.032246
  H      -0.062776     -0.809804      0.681640
  H      -0.090023     -0.184864     -1.040340
  H      -0.071447      0.994152      0.361816
  F      -2.018283     -0.004182      0.030573
6
Coordinates from ORCA-job neb_MEP_ALL E -600.130456698124
  C       0.073219      0.000147     -0.001167
  Cl      2.158098      0.004525     -0.032352
  H      -0.061965     -0.811269      0.682867
  H      -0.089284     -0.185196     -1.042233
  H      -0.070663      0.995955      0.362463
  F      -2.009404     -0.004162      0.030421
6
Coordinates from ORCA-job neb_MEP_ALL E -600.130377179374
  C       0.055620      0.000110     -0.000900
  Cl      2.164683      0.004538     -0.032456
  H      -0.061093     -0.812555      0.683941
  H      -0.088467     -0.185486     -1.043891
  H      -0.069812      0.997535      0.363026
  F      -2.000931     -0.004142      0.030281
6
Coordinates from ORCA-job neb_MEP_ALL E -600.130448729604
  C       0.038345      0.000074     -0.000641
  Cl      2.171198      0.004552     -0.032556
  H      -0.060140     -0.813635      0.684841
  H      -0.087561     -0.185730     -1.045291
  H      -0.068872      0.998865      0.363496
  F      -1.992970     -0.004126      0.030152
6
Coordinates from ORCA-job neb_MEP_ALL E -600.130677681823
  C       0.021691      0.000042     -0.000405
  Cl      2.177469      0.004565     -0.032651
  H      -0.059179     -0.814546      0.685596
  H      -0.086636     -0.185932     -1.046461
  H      -0.067921      0.999983      0.363889
  F      -1.985424     -0.004111      0.030033
6
Coordinates from ORCA-job neb_MEP_ALL E -600.131092055485
  C       0.003987     -0.000015     -0.000064
  Cl      2.184114      0.004580     -0.032754
  H      -0.058122     -0.815336      0.686244
  H      -0.085611     -0.186122     -1.047569
  H      -0.066871      1.000988      0.364233
  F      -1.977498     -0.004095      0.029909
6
Coordinates from ORCA-job neb_MEP_ALL E -600.131771087842
  C      -0.015894     -0.000010     -0.000170
  Cl      2.191518      0.004596     -0.032856
  H      -0.056908     -0.816200      0.686974
  H      -0.084396     -0.186252     -1.048312
  H      -0.065655      1.001945      0.364582
  F      -1.968664     -0.004078      0.029782
6
Coordinates from ORCA-job neb_MEP_ALL E -600.132818435604
  C      -0.038702     -0.000269      0.001208
  Cl      2.199943      0.004622     -0.033008
  H      -0.055454     -0.816481      0.687154
  H      -0.083030     -0.186476     -1.049713
  H      -0.064221      1.002653      0.364768
  F      -1.958535     -0.004050      0.029591
6
Coordinates from ORCA-job neb_MEP_ALL E -600.134802456342
  C      -0.069355      0.000111      0.001073
  Cl      2.211023      0.004648     -0.033191
  H      -0.053464     -0.817286      0.687831
  H      -0.081173     -0.186554     -1.049976
  H      -0.062266      1.003094      0.364960
  F      -1.944764     -0.004012      0.029304
6
Coordinates from ORCA-job neb_MEP_ALL E -600.147889294666
  C      -0.183933     -0.000447      0.002504
  Cl      2.251967      0.004710     -0.033782
  H      -0.046973     -0.814848      0.685689
  H      -0.074361     -0.185939     -1.046906
  H      -0.055640      1.000472      0.363859
  F      -1.891059     -0.003948      0.028638
6
Coordinates from ORCA-job neb_MEP_ALL E -600.160638541589
  C      -0.275103     -0.000424      0.003979
  Cl      2.290550      0.004779     -0.034471
  H      -0.043070     -0.808740      0.680662
  H      -0.070714     -0.184558     -1.038979
  H      -0.051843      0.992791      0.361185
  F      -1.849821     -0.003848      0.027624
6
Coordinates from ORCA-job neb_MEP_ALL E -600.168320993252
  C      -0.340571     -0.001038      0.005954
  Cl      2.329326      0.004788     -0.034678
  H      -0.041567     -0.800345      0.673103
  H      -0.069834     -0.182492     -1.028505
  H      -0.050515      0.982865      0.356957
  F      -1.826839     -0.003777      0.027170
6
Coordinates from ORCA-job neb_MEP_ALL E -600.171973677463
  C      -0.386634     -0.000582      0.005083
  Cl      2.375032      0.004971     -0.035480
  H      -0.043486     -0.790453      0.664759
  H      -0.067870     -0.180389     -1.016010
  H      -0.051216      0.970456      0.352550
  F      -1.825826     -0.004003      0.029097
6
Coordinates from ORCA-job neb_MEP_ALL E -600.174093157362
  C      -0.410410     -0.000889      0.005985
  Cl      2.439212      0.005246     -0.036337
  H      -0.051947     -0.785856      0.662091
  H      -0.080514     -0.179987     -1.010875
  H      -0.060791      0.965067      0.352099
  F      -1.835550     -0.003580      0.027038
6
Coordinates from ORCA-job neb_MEP_ALL E -600.175569463715
  C      -0.426446     -0.000896      0.006377
  Cl      2.503104      0.005142     -0.036670
  H      -0.063617     -0.785236      0.660393
  H      -0.091364     -0.179047     -1.008755
  H      -0.072333      0.963986      0.350159
  F      -1.849344     -0.003948      0.028496
6
Coordinates from ORCA-job neb_MEP_ALL E -600.176330956303
  C      -0.439238     -0.000954      0.006854
  Cl      2.553735      0.005537     -0.039416
  H      -0.073817     -0.783839      0.660396
  H      -0.098469     -0.178991     -1.005935
  H      -0.081558      0.962002      0.350863
  F      -1.860655     -0.003754      0.027237
6
Coordinates from ORCA-job neb_MEP_ALL E -600.176407860148
  C      -0.439903     -0.000914      0.007153
  Cl      2.558258      0.005307     -0.040580
  H      -0.077320     -0.784838      0.661940
  H      -0.100691     -0.179086     -1.006686
  H      -0.085169      0.963453      0.351932
  F      -1.855176     -0.003923      0.026241
6
Coordinates from ORCA-job neb_MEP_ALL E -600.173324335993
  C      -0.447881     -0.000897      0.007268
  Cl      2.503625      0.005185     -0.039931
  H      -0.071842     -0.788968      0.665561
  H      -0.095201     -0.179992     -1.012073
  H      -0.079767      0.968486      0.353830
  F      -1.808934     -0.003814      0.025345
6
Coordinates from ORCA-job neb_MEP_ALL E -600.134564299856
  C       0.308438      0.001548     -0.010576
  Cl      2.140610      0.002551     -0.019709
  H      -0.030064     -0.791634      0.657690
  H      -0.035298     -0.179551     -1.029714
  H      -0.031425      0.975489      0.344389
  F      -2.352262     -0.008402      0.057921
6
Coordinates from ORCA-job neb_MEP_ALL E -600.135285648366
  C       0.277832      0.001365     -0.008800
  Cl      2.127407      0.002787     -0.022194
  H      -0.047662     -0.783230      0.653100
  H      -0.057180     -0.178093     -1.016613
  H      -0.050263      0.964750      0.343403
  F      -2.250135     -0.007579      0.051104
6
Coordinates from ORCA-job neb_MEP_ALL E -600.134703198826
  C       0.236284      0.000603     -0.004250
  Cl      2.113972      0.004213     -0.030386
  H      -0.059793     -0.789681      0.663891
  H      -0.084146     -0.180202     -1.015866
  H      -0.067517      0.969857      0.351984
  F      -2.138801     -0.004790      0.034627
6
Coordinates from ORCA-job neb_MEP_ALL E -600.133750488287
  C       0.201956      0.000387     -0.002915
  Cl      2.115074      0.004506     -0.032049
  H      -0.064141     -0.795477      0.669821
  H      -0.091453     -0.181635     -1.021500
  H      -0.072832      0.976425      0.355684
  F      -2.088604     -0.004205      0.030959
6
Coordinates from ORCA-job neb_MEP_ALL E -600.132927866583
  C       0.173753      0.000373     -0.002767
  Cl      2.122521      0.004435     -0.031633
  H      -0.064458     -0.800284      0.673575
  H      -0.091136     -0.182699     -1.028236
  H      -0.072863      0.982518      0.357522
  F      -2.067817     -0.004344      0.031539
6
Coordinates from ORCA-job neb_MEP_ALL E -600.132197554865
  C       0.150701      0.000319     -0.002350
  Cl      2.130084      0.004456     -0.031865
  H      -0.064494     -0.803506      0.676357
  H      -0.091518     -0.183434     -1.032240
  H      -0.073067      0.986427      0.359029
  F      -2.051705     -0.004261      0.031069
6
Coordinates from ORCA-job neb_MEP_ALL E -600.131557661256
  C       0.129087      0.000269     -0.002018
  Cl      2.137582      0.004474     -0.031994
  H      -0.064084     -0.806074      0.678523
  H      -0.091255     -0.184016     -1.035513
  H      -0.072723      0.989567      0.360175
  F      -2.038607     -0.004219      0.030827
6
Coordinates from ORCA-job neb_MEP_ALL E -600.131052746045
  C       0.109035      0.000222     -0.001698
  Cl      2.144843      0.004493     -0.032117
  H      -0.063430     -0.808161      0.680279
  H      -0.090710     -0.184494     -1.038198
  H      -0.072104      0.992128      0.361107
  F      -2.027634     -0.004188      0.030628
6
Coordinates from ORCA-job neb_MEP_ALL E -600.130686969852
  C       0.090534      0.000186     -0.001428
  Cl      2.151662      0.004508     -0.032227
  H      -0.062683     -0.809867      0.681712
  H      -0.090050     -0.184880     -1.040380
  H      -0.071389      0.994217      0.361863
  F      -2.018075     -0.004164      0.030460
6
Coordinates from ORCA-job neb_MEP_ALL E -600.130458409420
  C       0.073019      0.000147     -0.001156
  Cl      2.158167      0.004520     -0.032331
  H      -0.061882     -0.811301      0.682913
  H      -0.089322     -0.185205     -1.042233
  H      -0.070616      0.995982      0.362496
  F      -2.009366     -0.004143      0.030311
6
Coordinates from ORCA-job neb_MEP_ALL E -600.130376980042
  C       0.055922      0.000111     -0.000899
  Cl      2.164563      0.004533     -0.032433
  H      -0.061036     -0.812553      0.683959
  H      -0.088530     -0.185487     -1.043847
  H      -0.069791      0.997520      0.363045
  F      -2.001128     -0.004124      0.030174
6
Coordinates from ORCA-job neb_MEP_ALL E -600.130433453118
  C       0.039269      0.000077     -0.000655
  Cl      2.170844      0.004547     -0.032529
  H      -0.060120     -0.813606      0.684836
  H      -0.087658     -0.185724     -1.045207
  H      -0.068886      0.998814      0.363503
  F      -1.993449     -0.004109      0.030051
6
Coordinates from ORCA-job neb_MEP_ALL E -600.130643496361
  C       0.023028      0.000050     -0.000436
  Cl      2.176961      0.004559     -0.032621
  H      -0.059187     -0.814512      0.685589
  H      -0.086760     -0.185924     -1.046360
  H      -0.067963      0.999920      0.363893
  F      -1.986079     -0.004094      0.029935
6
Coordinates from ORCA-job neb_MEP_ALL E -600.131043296904
  C       0.005275     -0.000016     -0.000062
  Cl      2.183624      0.004575     -0.032724
  H      -0.058126     -0.815304      0.686238
  H      -0.085736     -0.186120     -1.047507
  H      -0.066911      1.000943      0.364243
  F      -1.978127     -0.004078      0.029811
6
Coordinates from ORCA-job neb_MEP_ALL E -600.131720728513
  C      -0.014698      0.000010     -0.000344
  Cl      2.191067      0.004590     -0.032822
  H      -0.056914     -0.816236      0.687033
  H      -0.084510     -0.186240     -1.048171
  H      -0.065694      1.001938      0.364615
  F      -1.969251     -0.004062      0.029688
6
Coordinates from ORCA-job neb_MEP_ALL E -600.132794199769
  C      -0.038518     -0.000334      0.001443
  Cl      2.199887      0.004618     -0.032984
  H      -0.055401     -0.816404      0.687103
  H      -0.083070     -0.186504     -1.049848
  H      -0.064195      1.002658      0.364783
  F      -1.958703     -0.004034      0.029504
6
Coordinates from ORCA-job neb_MEP_ALL E -600.134782478687
  C      -0.068907      0.000220      0.001065
  Cl      2.210988      0.004643     -0.033170
  H      -0.053417     -0.817322      0.687895
  H      -0.081236     -0.186570     -1.049977
  H      -0.062257      1.003024      0.364977
  F      -1.945171     -0.003995      0.029211
6
Coordinates from ORCA-job neb_MEP_ALL E -600.147277143845
  C      -0.179853     -0.000466      0.002446
  Cl      2.250263      0.004712     -0.033726
  H      -0.047036     -0.815104      0.685919
  H      -0.074559     -0.186011     -1.047214
  H      -0.055736      1.000788      0.364004
  F      -1.893078     -0.003919      0.028571
6
Coordinates from ORCA-job neb_MEP_ALL E -600.160311358483
  C      -0.272814     -0.000271      0.003653
  Cl      2.289350      0.004771     -0.034425
  H      -0.043194     -0.809041      0.680940
  H      -0.070573     -0.184628     -1.039255
  H      -0.051880      0.993041      0.361319
  F      -1.850888     -0.003870      0.027767
6
Coordinates from ORCA-job neb_MEP_ALL E -600.168242197105
  C      -0.339041     -0.001207      0.006300
  Cl      2.330306      0.004797     -0.034831
  H      -0.041927     -0.800358      0.673436
  H      -0.070742     -0.182651     -1.028886
  H      -0.051014      0.983113      0.357404
  F      -1.827582     -0.003695      0.026577
6
Coordinates from ORCA-job neb_MEP_ALL E -600.172017002389
  C      -0.386633     -0.000542      0.005303
  Cl      2.376795      0.004903     -0.035286
  H      -0.043580     -0.790679      0.664534
  H      -0.068575     -0.180136     -1.015574
  H      -0.051542      0.970478      0.352036
  F      -1.826464     -0.004023      0.028987
6
Coordinates from ORCA-job neb_MEP_ALL E -600.174159040142
  C      -0.412155     -0.000842      0.005689
  Cl      2.440982      0.005257     -0.036242
  H      -0.051834     -0.784907      0.661327
  H      -0.079793     -0.179894     -1.010061
  H      -0.060461      0.963991      0.351789
  F      -1.836739     -0.003606      0.027499
6
Coordinates from ORCA-job neb_MEP_ALL E -600.175535420934
  C      -0.426029     -0.000886      0.006216
  Cl      2.501287      0.005038     -0.035848
  H      -0.062827     -0.785083      0.660050
  H      -0.091976     -0.179057     -1.009163
  H      -0.071965      0.963961      0.349910
  F      -1.848490     -0.003973      0.028834
6
Coordinates from ORCA-job neb_MEP_ALL E -600.176274363572
  C      -0.438015     -0.000930      0.006730
  Cl      2.548851      0.005420     -0.038796
  H      -0.072703     -0.783992      0.660247
  H      -0.097965     -0.178952     -1.006383
  H      -0.080659      0.962275      0.350612
  F      -1.859509     -0.003822      0.027591
6
Coordinates from ORCA-job neb_MEP_ALL E -600.176295553120
  C      -0.438192     -0.000902      0.007117
  Cl      2.549491      0.005250     -0.040380
  H      -0.075753     -0.784905      0.661972
  H      -0.099089     -0.179081     -1.006808
  H      -0.083619      0.963564      0.351924
  F      -1.852838     -0.003926      0.026175
6
Coordinates from ORCA-job neb_MEP_ALL E -600.173324335993
  C      -0.447881     -0.000894      0.007258
  Cl      2.503626      0.005170     -0.039875
  H      -0.071862     -0.788968      0.665560
  H      -0.095180     -0.179992     -1.012075
  H      -0.079769      0.968486      0.353828
  F      -1.808934     -0.003803      0.025305
6
Coordinates from ORCA-job neb_MEP_ALL E -600.134564299856
  C       0.308438      0.001548     -0.010576
  Cl      2.140610      0.002551     -0.019709
  H      -0.030064     -0.791634      0.657690
  H      -0.035298     -0.179551     -1.029714
  H      -0.031425      0.975489      0.344389
  F      -2.352262     -0.008402      0.057921
6
Coordinates from ORCA-job neb_MEP_ALL E -600.135286858480
  C       0.275907      0.001319     -0.008480
  Cl      2.126430      0.002874     -0.022827
  H      -0.048529     -0.783315      0.653584
  H      -0.059167     -0.178150     -1.016064
  H      -0.051517      0.964669      0.343871
  F      -2.243125     -0.007398      0.049915
6
Coordinates from ORCA-job neb_MEP_ALL E -600.134674321858
  C       0.233263      0.000658     -0.004504
  Cl      2.113281      0.004074     -0.029674
  H      -0.061201     -0.789952      0.663737
  H      -0.084511     -0.180194     -1.016834
  H      -0.068531      0.970404      0.351682
  F      -2.132301     -0.004990      0.035594
6
Coordinates from ORCA-job neb_MEP_ALL E -600.133711856385
  C       0.198791      0.000397     -0.002979
  Cl      2.115849      0.004464     -0.031766
  H      -0.064124     -0.796214      0.670327
  H      -0.091231     -0.181794     -1.022664
  H      -0.072680      0.977411      0.355897
  F      -2.086607     -0.004264      0.031184
6
Coordinates from ORCA-job neb_MEP_ALL E -600.132892554912
  C       0.170995      0.000359     -0.002643
  Cl      2.123694      0.004436     -0.031723
  H      -0.064264     -0.800867      0.674169
  H      -0.091335     -0.182839     -1.028824
  H      -0.072806      0.983194      0.357889
  F      -2.066285     -0.004282      0.031133
6
Coordinates from ORCA-job neb_MEP_ALL E -600.132171046971
  C       0.148509      0.000302     -0.002277
  Cl      2.130884      0.004450     -0.031860
  H      -0.064493     -0.803801      0.676649
  H      -0.091791     -0.183499     -1.032521
  H      -0.073172      0.986759      0.359199
  F      -2.049937     -0.004210      0.030809
6
Coordinates from ORCA-job neb_MEP_ALL E -600.131537532054
  C       0.127234      0.000257     -0.001950
  Cl      2.138257      0.004475     -0.031994
  H      -0.063934     -0.806277      0.678743
  H      -0.091381     -0.184067     -1.035679
  H      -0.072656      0.989785      0.360315
  F      -2.037521     -0.004172      0.030565
6
Coordinates from ORCA-job neb_MEP_ALL E -600.131036956256
  C       0.107516      0.000212     -0.001630
  Cl      2.145415      0.004492     -0.032115
  H      -0.063238     -0.808317      0.680459
  H      -0.090796     -0.184537     -1.038315
  H      -0.071995      0.992294      0.361229
  F      -2.026902     -0.004145      0.030372
6
Coordinates from ORCA-job neb_MEP_ALL E -600.130676222926
  C       0.089424      0.000175     -0.001372
  Cl      2.152079      0.004505     -0.032222
  H      -0.062488     -0.809958      0.681839
  H      -0.090128     -0.184908     -1.040417
  H      -0.071277      0.994310      0.361959
  F      -2.017609     -0.004123      0.030213
6
Coordinates from ORCA-job neb_MEP_ALL E -600.130457464730
  C       0.072690      0.000136     -0.001104
  Cl      2.158294      0.004517     -0.032321
  H      -0.061726     -0.811318      0.682978
  H      -0.089430     -0.185218     -1.042187
  H      -0.070540      0.995987      0.362560
  F      -2.009288     -0.004104      0.030075
6
Coordinates from ORCA-job neb_MEP_ALL E -600.130378786632
  C       0.056774      0.000103     -0.000867
  Cl      2.164253      0.004529     -0.032415
  H      -0.060940     -0.812487      0.683955
  H      -0.088690     -0.185482     -1.043697
  H      -0.069771      0.997424      0.363072
  F      -2.001625     -0.004087      0.029952
6
Coordinates from ORCA-job neb_MEP_ALL E -600.130425945744
  C       0.041480      0.000074     -0.000639
  Cl      2.170024      0.004541     -0.032502
  H      -0.060109     -0.813477      0.684778
  H      -0.087898     -0.185704     -1.044980
  H      -0.068952      0.998640      0.363501
  F      -1.994544     -0.004074      0.029842
6
Coordinates from ORCA-job neb_MEP_ALL E -600.130623123469
  C       0.025846      0.000040     -0.000424
  Cl      2.175919      0.004553     -0.032589
  H      -0.059219     -0.814364      0.685515
  H      -0.087042     -0.185902     -1.046121
  H      -0.068069      0.999733      0.363886
  F      -1.987435     -0.004060      0.029734
6
Coordinates from ORCA-job neb_MEP_ALL E -600.131012094605
  C       0.008081     -0.000017     -0.000071
  Cl      2.182593      0.004567     -0.032690
  H      -0.058164     -0.815191      0.686194
  H      -0.086027     -0.186104     -1.047295
  H      -0.067026      1.000790      0.364250
  F      -1.979457     -0.004045      0.029612
6
Coordinates from ORCA-job neb_MEP_ALL E -600.131668781373
  C      -0.012225     -0.000017     -0.000277
  Cl      2.190163      0.004582     -0.032787
  H      -0.056934     -0.816137      0.686997
  H      -0.084794     -0.186239     -1.048059
  H      -0.065796      1.001841      0.364637
  F      -1.970414     -0.004029      0.029489
6
Coordinates from ORCA-job neb_MEP_ALL E -600.132786307194
  C      -0.037514     -0.000273      0.001424
  Cl      2.199538      0.004607     -0.032951
  H      -0.055356     -0.816402      0.687143
  H      -0.083244     -0.186510     -1.049755
  H      -0.064216      1.002586      0.364813
  F      -1.959209     -0.004007      0.029326
6
Coordinates from ORCA-job neb_MEP_ALL E -600.134745108483
  C      -0.066997     -0.000293      0.002192
  Cl      2.210434      0.004639     -0.033148
  H      -0.053488     -0.816830      0.687489
  H      -0.081410     -0.186664     -1.050630
  H      -0.062353      1.003121      0.364995
  F      -1.946186     -0.003973      0.029102
6
Coordinates from ORCA-job neb_MEP_ALL E -600.146710781176
  C      -0.170236     -0.000124      0.001488
  Cl      2.246720      0.004727     -0.033630
  H      -0.047218     -0.815893      0.686678
  H      -0.075169     -0.186098     -1.047334
  H      -0.056075      1.001266      0.364322
  F      -1.898022     -0.003879      0.028476
6
Coordinates from ORCA-job neb_MEP_ALL E -600.159984486470
  C      -0.267143     -0.000644      0.004202
  Cl      2.285905      0.004801     -0.034287
  H      -0.043303     -0.809263      0.681045
  H      -0.070222     -0.184834     -1.040468
  H      -0.051775      0.993792      0.361513
  F      -1.853462     -0.003852      0.027996
6
Coordinates from ORCA-job neb_MEP_ALL E -600.168156003874
  C      -0.336598     -0.000993      0.005806
  Cl      2.330690      0.004882     -0.035213
  H      -0.042594     -0.800868      0.674491
  H      -0.071065     -0.183046     -1.029755
  H      -0.051543      0.983697      0.358377
  F      -1.828889     -0.003672      0.026293
6
Coordinates from ORCA-job neb_MEP_ALL E -600.172068797334
  C      -0.385651     -0.000660      0.005984
  Cl      2.383122      0.004808     -0.035105
  H      -0.044490     -0.791965      0.665315
  H      -0.072143     -0.180030     -1.016104
  H      -0.053332      0.971805      0.352064
  F      -1.827506     -0.003957      0.027846
6
Coordinates from ORCA-job neb_MEP_ALL E -600.174220982367
  C      -0.415170     -0.000813      0.005461
  Cl      2.445080      0.005253     -0.036057
  H      -0.051804     -0.783646      0.659753
  H      -0.078029     -0.179469     -1.008527
  H      -0.059872      0.962442      0.350647
  F      -1.840205     -0.003768      0.028724
6
Coordinates from ORCA-job neb_MEP_ALL E -600.175502363588
  C      -0.425852     -0.000833      0.005736
  Cl      2.496920      0.004903     -0.034349
  H      -0.060564     -0.784000      0.658935
  H      -0.092184     -0.179087     -1.009318
  H      -0.070432      0.963027      0.349404
  F      -1.847889     -0.004010      0.029592
6
Coordinates from ORCA-job neb_MEP_ALL E -600.176211639130
  C      -0.434924     -0.000874      0.006350
  Cl      2.536885      0.005138     -0.036966
  H      -0.069680     -0.784198      0.659646
  H      -0.097261     -0.178861     -1.007570
  H      -0.078408      0.962807      0.349858
  F      -1.856611     -0.004011      0.028682
6
Coordinates from ORCA-job neb_MEP_ALL E -600.176183720245
  C      -0.434517     -0.000886      0.007051
  Cl      2.528876      0.005158     -0.040000
  H      -0.072198     -0.785173      0.662193
  H      -0.095552     -0.179120     -1.007261
  H      -0.080137      0.963959      0.352017
  F      -1.846472     -0.003938      0.026000
6
Coordinates from ORCA-job neb_MEP_ALL E -600.173324335993
  C      -0.447881     -0.000893      0.007246
  Cl      2.503627      0.005166     -0.039812
  H      -0.071880     -0.788967      0.665559
  H      -0.095154     -0.179993     -1.012077
  H      -0.079776      0.968487      0.353824
  F      -1.808935     -0.003799      0.025260
6
Coordinates from ORCA-job neb_MEP_ALL E -600.134564299856
  C       0.308438      0.001548     -0.010576
  Cl      2.140610      0.002551     -0.019709
  H      -0.030064     -0.791634      0.657690
  H      -0.035298     -0.179551     -1.029714
  H      -0.031425      0.975489      0.344389
  F      -2.352262     -0.008402      0.057921
6
Coordinates from ORCA-job neb_MEP_ALL E -600.135286873498
  C       0.275228      0.001300     -0.008346
  Cl      2.126107      0.002915     -0.023102
  H      -0.048803     -0.783353      0.653790
  H      -0.059923     -0.178177     -1.015832
  H      -0.051958      0.964634      0.344071
  F      -2.240650     -0.007319      0.049417
6
Coordinates from ORCA-job neb_MEP_ALL E -600.134590720381
  C       0.231945      0.000637     -0.004416
  Cl      2.113076      0.004097     -0.029810
  H      -0.061746     -0.790105      0.663947
  H      -0.085295     -0.180234     -1.016872
  H      -0.069143      0.970556      0.351837
  F      -2.128836     -0.004951      0.035313
6
Coordinates from ORCA-job neb_MEP_ALL E -600.133628116358
  C       0.197496      0.000413     -0.003050
  Cl      2.116519      0.004432     -0.031596
  H      -0.063990     -0.796568      0.670528
  H      -0.090866     -0.181867     -1.023323
  H      -0.072447      0.977917      0.355955
  F      -2.086712     -0.004326      0.031485
6
Coordinates from ORCA-job neb_MEP_ALL E -600.132807127726
  C       0.170168      0.000347     -0.002573
  Cl      2.124053      0.004445     -0.031828
  H      -0.064411     -0.800931      0.674285
  H      -0.091697     -0.182855     -1.028790
  H      -0.073061      0.983233      0.357978
  F      -2.065052     -0.004238      0.030928
6
Coordinates from ORCA-job neb_MEP_ALL E -600.132099408764
  C       0.147447      0.000301     -0.002240
  Cl      2.131203      0.004459     -0.031910
  H      -0.064489     -0.803869      0.676736
  H      -0.091906     -0.183518     -1.032551
  H      -0.073213      0.986816      0.359259
  F      -2.049043     -0.004188      0.030706
6
Coordinates from ORCA-job neb_MEP_ALL E -600.131486638992
  C       0.126463      0.000244     -0.001886
  Cl      2.138534      0.004484     -0.032044
  H      -0.063878     -0.806316      0.678804
  H      -0.091433     -0.184087     -1.035718
  H      -0.072634      0.989832      0.360369
  F      -2.037052     -0.004157      0.030475
6
Coordinates from ORCA-job neb_MEP_ALL E -600.130999459074
  C       0.107063      0.000208     -0.001623
  Cl      2.145588      0.004498     -0.032159
  H      -0.063187     -0.808313      0.680485
  H      -0.090832     -0.184539     -1.038260
  H      -0.071974      0.992279      0.361260
  F      -2.026658     -0.004134      0.030297
6
Coordinates from ORCA-job neb_MEP_ALL E -600.130663691851
  C       0.089199      0.000167     -0.001317
  Cl      2.152173      0.004510     -0.032264
  H      -0.062455     -0.809932      0.681842
  H      -0.090178     -0.184912     -1.040387
  H      -0.071271      0.994280      0.361978
  F      -2.017469     -0.004113      0.030147
6
Coordinates from ORCA-job neb_MEP_ALL E -600.130453871099
  C       0.072718      0.000136     -0.001085
  Cl      2.158304      0.004522     -0.032359
  H      -0.061711     -0.811290      0.682978
  H      -0.089484     -0.185216     -1.042126
  H      -0.070546      0.995943      0.362573
  F      -2.009281     -0.004095      0.030019
6
Coordinates from ORCA-job neb_MEP_ALL E -600.130370016071
  C       0.057241      0.000099     -0.000840
  Cl      2.164104      0.004535     -0.032449
  H      -0.060949     -0.812424      0.683924
  H      -0.088763     -0.185475     -1.043609
  H      -0.069799      0.997344      0.363070
  F      -2.001835     -0.004079      0.029904
6
Coordinates from ORCA-job neb_MEP_ALL E -600.130404947079
  C       0.042256      0.000063     -0.000612
  Cl      2.169763      0.004545     -0.032534
  H      -0.060141     -0.813391      0.684727
  H      -0.087989     -0.185693     -1.044872
  H      -0.069002      0.998543      0.363490
  F      -1.994887     -0.004067      0.029800
6
Coordinates from ORCA-job neb_MEP_ALL E -600.130574318047
  C       0.026517      0.000037     -0.000352
  Cl      2.175703      0.004556     -0.032621
  H      -0.059250     -0.814282      0.685463
  H      -0.087135     -0.185898     -1.046057
  H      -0.068120      0.999641      0.363873
  F      -1.987715     -0.004055      0.029694
6
Coordinates from ORCA-job neb_MEP_ALL E -600.130935254255
  C       0.008807      0.000030     -0.000232
  Cl      2.182357      0.004568     -0.032714
  H      -0.058208     -0.815189      0.686218
  H      -0.086114     -0.186080     -1.047103
  H      -0.067083      1.000712      0.364252
  F      -1.979758     -0.004041      0.029579
6
Coordinates from ORCA-job neb_MEP_ALL E -600.131581963828
  C      -0.011442     -0.000100      0.001063
  Cl      2.189920      0.004586     -0.032850
  H      -0.056961     -0.815694      0.686581
  H      -0.084951     -0.186349     -1.048723
  H      -0.065853      1.001581      0.364499
  F      -1.970713     -0.004024      0.029431
6
Coordinates from ORCA-job neb_MEP_ALL E -600.132729461094
  C      -0.036462      0.000292     -0.001765
  Cl      2.199145      0.004592     -0.032903
  H      -0.055457     -0.817437      0.688159
  H      -0.083302     -0.186246     -1.047929
  H      -0.064317      1.002816      0.365078
  F      -1.959607     -0.004017      0.029359
6
Coordinates from ORCA-job neb_MEP_ALL E -600.134611841886
  C      -0.065301      0.000052     -0.001010
  Cl      2.209797      0.004610     -0.033021
  H      -0.053651     -0.817724      0.688366
  H      -0.081501     -0.186368     -1.048769
  H      -0.062513      1.003421      0.365242
  F      -1.946831     -0.003991      0.029192
6
Coordinates from ORCA-job neb_MEP_ALL E -600.145406060263
  C      -0.166786     -0.000944      0.005264
  Cl      2.245758      0.004743     -0.033654
  H      -0.047557     -0.814667      0.685525
  H      -0.075324     -0.186423     -1.049517
  H      -0.056328      1.001129      0.364108
  F      -1.899762     -0.003838      0.028273
6
Coordinates from ORCA-job neb_MEP_ALL E -600.159154646904
  C      -0.264805     -0.000042      0.002310
  Cl      2.284295      0.004820     -0.034189
  H      -0.043021     -0.810249      0.681846
  H      -0.070277     -0.184762     -1.039831
  H      -0.051654      0.994102      0.361646
  F      -1.854537     -0.003870      0.028218
6
Coordinates from ORCA-job neb_MEP_ALL E -600.167959244057
  C      -0.336313     -0.000540      0.004721
  Cl      2.329272      0.004926     -0.035255
  H      -0.042597     -0.801174      0.674819
  H      -0.069936     -0.183126     -1.029704
  H      -0.051207      0.983648      0.358511
  F      -1.829219     -0.003736      0.026908
6
Coordinates from ORCA-job neb_MEP_ALL E -600.172225532032
  C      -0.384469     -0.001105      0.006819
  Cl      2.386631      0.004820     -0.035262
  H      -0.045525     -0.792459      0.666200
  H      -0.074468     -0.180402     -1.017557
  H      -0.054680      0.972955      0.352982
  F      -1.827488     -0.003808      0.026818
6
Coordinates from ORCA-job neb_MEP_ALL E -600.174340163846
  C      -0.415238     -0.000742      0.005571
  Cl      2.446996      0.005189     -0.036003
  H      -0.052204     -0.784259      0.659670
  H      -0.077819     -0.179183     -1.008385
  H      -0.060132      0.962881      0.350048
  F      -1.841603     -0.003887      0.029098
6
Coordinates from ORCA-job neb_MEP_ALL E -600.175424525427
  C      -0.426593     -0.000816      0.005543
  Cl      2.495269      0.004936     -0.034275
  H      -0.059583     -0.783167      0.658374
  H      -0.090979     -0.179078     -1.008687
  H      -0.069342      0.962105      0.349292
  F      -1.848772     -0.003980      0.029753
6
Coordinates from ORCA-job neb_MEP_ALL E -600.176058245393
  C      -0.433847     -0.000849      0.006082
  Cl      2.532303      0.005000     -0.035723
  H      -0.067942     -0.783973      0.659011
  H      -0.097366     -0.178837     -1.008137
  H      -0.077209      0.962737      0.349339
  F      -1.855939     -0.004079      0.029428
6
Coordinates from ORCA-job neb_MEP_ALL E -600.175880783405
  C      -0.433843     -0.000887      0.007040
  Cl      2.522559      0.005141     -0.039914
  H      -0.071427     -0.785421      0.662456
  H      -0.094805     -0.179192     -1.007627
  H      -0.079373      0.964278      0.352186
  F      -1.843111     -0.003919      0.025859
6
Coordinates from ORCA-job neb_MEP_ALL E -600.173324335993
  C      -0.447882     -0.000892      0.007242
  Cl      2.503627      0.005159     -0.039789
  H      -0.071888     -0.788966      0.665559
  H      -0.095145     -0.179993     -1.012078
  H      -0.079777      0.968487      0.353823
  F      -1.808935     -0.003795      0.025243
6
Coordinates from ORCA-job neb_MEP_ALL E -600.134564299856
  C       0.308438      0.001548     -0.010576
  Cl      2.140610      0.002551     -0.019709
  H      -0.030064     -0.791634      0.657690
  H      -0.035298     -0.179551     -1.029714
  H      -0.031425      0.975489      0.344389
  F      -2.352262     -0.008402      0.057921
6
Coordinates from ORCA-job neb_MEP_ALL E -600.135285296636
  C       0.275884      0.001315     -0.008453
  Cl      2.126420      0.002886     -0.022888
  H      -0.048527     -0.783339      0.653640
  H      -0.059270     -0.178161     -1.016036
  H      -0.051551      0.964679      0.343920
  F      -2.242956     -0.007380      0.049816
6
Coordinates from ORCA-job neb_MEP_ALL E -600.134546188315
  C       0.232955      0.000626     -0.004352
  Cl      2.113328      0.004134     -0.029995
  H      -0.061258     -0.790033      0.663986
  H      -0.085077     -0.180238     -1.016626
  H      -0.068759      0.970409      0.351915
  F      -2.131189     -0.004899      0.035072
6
Coordinates from ORCA-job neb_MEP_ALL E -600.133604012439
  C       0.198574      0.000406     -0.003012
  Cl      2.116202      0.004450     -0.031720
  H      -0.064019     -0.796303      0.670362
  H      -0.091015     -0.181810     -1.022869
  H      -0.072542      0.977551      0.355895
  F      -2.087200     -0.004294      0.031344
6
Coordinates from ORCA-job neb_MEP_ALL E -600.132776807135
  C       0.171055      0.000354     -0.002621
  Cl      2.123636      0.004443     -0.031780
  H      -0.064454     -0.800723      0.674068
  H      -0.091587     -0.182805     -1.028590
  H      -0.073046      0.982995      0.357841
  F      -2.065605     -0.004263      0.031082
6
Coordinates from ORCA-job neb_MEP_ALL E -600.132066968410
  C       0.148193      0.000301     -0.002260
  Cl      2.130928      0.004460     -0.031906
  H      -0.064471     -0.803759      0.676628
  H      -0.091792     -0.183495     -1.032453
  H      -0.073157      0.986699      0.359197
  F      -2.049701     -0.004206      0.030793
6
Coordinates from ORCA-job neb_MEP_ALL E -600.131469438084
  C       0.127078      0.000252     -0.001925
  Cl      2.138307      0.004482     -0.032037
  H      -0.063923     -0.806249      0.678731
  H      -0.091381     -0.184067     -1.035650
  H      -0.072649      0.989756      0.360319
  F      -2.037431     -0.004173      0.030562
6
Coordinates from ORCA-job neb_MEP_ALL E -600.130983820443
  C       0.107555      0.000211     -0.001632
  Cl      2.145402      0.004498     -0.032154
  H      -0.063249     -0.808269      0.680430
  H      -0.090803     -0.184528     -1.038245
  H      -0.072007      0.992236      0.361221
  F      -2.026898     -0.004147      0.030380
6
Coordinates from ORCA-job neb_MEP_ALL E -600.130655448860
  C       0.089552      0.000172     -0.001348
  Cl      2.152040      0.004510     -0.032259
  H      -0.062517     -0.809916      0.681811
  H      -0.090148     -0.184904     -1.040381
  H      -0.071305      0.994263      0.361951
  F      -2.017623     -0.004126      0.030226
6
Coordinates from ORCA-job neb_MEP_ALL E -600.130453232617
  C       0.072822      0.000136     -0.001097
  Cl      2.158261      0.004523     -0.032357
  H      -0.061760     -0.811288      0.682959
  H      -0.089446     -0.185214     -1.042152
  H      -0.070569      0.995950      0.362554
  F      -2.009309     -0.004108      0.030094
6
Coordinates from ORCA-job neb_MEP_ALL E -600.130374220328
  C       0.056939      0.000100     -0.000852
  Cl      2.164211      0.004535     -0.032450
  H      -0.060976     -0.812451      0.683929
  H      -0.088707     -0.185477     -1.043665
  H      -0.069801      0.997384      0.363063
  F      -2.001666     -0.004091      0.029973
6
Coordinates from ORCA-job neb_MEP_ALL E -600.130412157518
  C       0.041506      0.000066     -0.000617
  Cl      2.170036      0.004546     -0.032537
  H      -0.060139     -0.813441      0.684751
  H      -0.087907     -0.185701     -1.044954
  H      -0.068976      0.998606      0.363493
  F      -1.994520     -0.004078      0.029865
6
Coordinates from ORCA-job neb_MEP_ALL E -600.130575917989
  C       0.025618      0.000034     -0.000371
  Cl      2.176030      0.004558     -0.032626
  H      -0.059237     -0.814334      0.685490
  H      -0.087039     -0.185903     -1.046128
  H      -0.068082      0.999710      0.363878
  F      -1.987290     -0.004065      0.029756
6
Coordinates from ORCA-job neb_MEP_ALL E -600.130924470462
  C       0.007922      0.000006     -0.000142
  Cl      2.182677      0.004571     -0.032723
  H      -0.058191     -0.815196      0.686203
  H      -0.086022     -0.186092     -1.047223
  H      -0.067043      1.000762      0.364245
  F      -1.979343     -0.004051      0.029639
6
Coordinates from ORCA-job neb_MEP_ALL E -600.131542838590
  C      -0.012319     -0.000057      0.000392
  Cl      2.190230      0.004587     -0.032839
  H      -0.056955     -0.815918      0.686784
  H      -0.084825     -0.186292     -1.048399
  H      -0.065815      1.001714      0.364559
  F      -1.970317     -0.004034      0.029503
6
Coordinates from ORCA-job neb_MEP_ALL E -600.132665832508
  C      -0.036997     -0.000011      0.000136
  Cl      2.199343      0.004603     -0.032955
  H      -0.055432     -0.816830      0.687554
  H      -0.083279     -0.186401     -1.049010
  H      -0.064284      1.002657      0.364906
  F      -1.959350     -0.004018      0.029369
6
Coordinates from ORCA-job neb_MEP_ALL E -600.134482828675
  C      -0.066092     -0.000094      0.000348
  Cl      2.210016      0.004626     -0.033098
  H      -0.053605     -0.817348      0.687981
  H      -0.081454     -0.186487     -1.049543
  H      -0.062458      1.003295      0.365121
  F      -1.946408     -0.003992      0.029192
6
Coordinates from ORCA-job neb_MEP_ALL E -600.144942352979
  C      -0.170002     -0.000491      0.003108
  Cl      2.246915      0.004727     -0.033657
  H      -0.047400     -0.815258      0.686087
  H      -0.075195     -0.186203     -1.048133
  H      -0.056201      1.001100      0.364178
  F      -1.898117     -0.003876      0.028417
6
Coordinates from ORCA-job neb_MEP_ALL E -600.158795872196
  C      -0.266709     -0.000481      0.003761
  Cl      2.285567      0.004813     -0.034253
  H      -0.043126     -0.809537      0.681237
  H      -0.070361     -0.184796     -1.040231
  H      -0.051724      0.993839      0.361503
  F      -1.853648     -0.003839      0.027983
6
Coordinates from ORCA-job neb_MEP_ALL E -600.167875989284
  C      -0.337153     -0.000618      0.004909
  Cl      2.329100      0.004899     -0.035117
  H      -0.042325     -0.801071      0.674481
  H      -0.069916     -0.182973     -1.029407
  H      -0.051030      0.983514      0.358152
  F      -1.828676     -0.003750      0.026983
6
Coordinates from ORCA-job neb_MEP_ALL E -600.172277871522
  C      -0.385182     -0.000904      0.006243
  Cl      2.384120      0.004858     -0.035322
  H      -0.045043     -0.792006      0.665897
  H      -0.072913     -0.180393     -1.017092
  H      -0.053877      0.972310      0.352887
  F      -1.827105     -0.003865      0.027387
6
Coordinates from ORCA-job neb_MEP_ALL E -600.174382731424
  C      -0.414229     -0.000810      0.005729
  Cl      2.445649      0.005204     -0.036073
  H      -0.052226     -0.784614      0.660216
  H      -0.078588     -0.179373     -1.008996
  H      -0.060381      0.963405      0.350524
  F      -1.840225     -0.003812      0.028601
6
Coordinates from ORCA-job neb_MEP_ALL E -600.175404690658
  C      -0.426477     -0.000827      0.005710
  Cl      2.496729      0.004976     -0.034740
  H      -0.060390     -0.783653      0.658800
  H      -0.091039     -0.179066     -1.008753
  H      -0.069937      0.962553      0.349443
  F      -1.848885     -0.003983      0.029539
6
Coordinates from ORCA-job neb_MEP_ALL E -600.175995454318
  C      -0.434938     -0.000868      0.006212
  Cl      2.536344      0.005107     -0.036403
  H      -0.068978     -0.783897      0.659228
  H      -0.097523     -0.178864     -1.007685
  H      -0.077959      0.962541      0.349607
  F      -1.856946     -0.004018      0.029042
6
Coordinates from ORCA-job neb_MEP_ALL E -600.175745909636
  C      -0.434987     -0.000892      0.007062
  Cl      2.529329      0.005175     -0.040041
  H      -0.072569     -0.785321      0.662366
  H      -0.095938     -0.179174     -1.007459
  H      -0.080494      0.964133      0.352139
  F      -1.845340     -0.003921      0.025933
6
Coordinates from ORCA-job neb_MEP_ALL E -600.173324335993
  C      -0.447881     -0.000893      0.007247
  Cl      2.503627      0.005166     -0.039815
  H      -0.071879     -0.788967      0.665559
  H      -0.095156     -0.179993     -1.012077
  H      -0.079776      0.968487      0.353824
  F      -1.808935     -0.003800      0.025262
6
Coordinates from ORCA-job neb_MEP_ALL E -600.134564299856
  C       0.308438      0.001548     -0.010576
  Cl      2.140610      0.002551     -0.019709
  H      -0.030064     -0.791634      0.657690
  H      -0.035298     -0.179551     -1.029714
  H      -0.031425      0.975489      0.344389
  F      -2.352262     -0.008402      0.057921
6
Coordinates from ORCA-job neb_MEP_ALL E -600.135286488783
  C       0.275915      0.001313     -0.008443
  Cl      2.126429      0.002891     -0.022913
  H      -0.048511     -0.783357      0.653668
  H      -0.059294     -0.178167     -1.016036
  H      -0.051549      0.964694      0.343943
  F      -2.242990     -0.007373      0.049780
6
Coordinates from ORCA-job neb_MEP_ALL E -600.134576993430
  C       0.232786      0.000612     -0.004269
  Cl      2.113384      0.004167     -0.030174
  H      -0.061246     -0.790091      0.664136
  H      -0.085347     -0.180265     -1.016529
  H      -0.068841      0.970426      0.352051
  F      -2.130737     -0.004849      0.034785
6
Coordinates from ORCA-job neb_MEP_ALL E -600.133628866270
  C       0.198526      0.000408     -0.003020
  Cl      2.116327      0.004447     -0.031721
  H      -0.063992     -0.796311      0.670362
  H      -0.090962     -0.181810     -1.022900
  H      -0.072513      0.977568      0.355889
  F      -2.087385     -0.004302      0.031388
6
Coordinates from ORCA-job neb_MEP_ALL E -600.132802192871
  C       0.171099      0.000352     -0.002614
  Cl      2.123573      0.004447     -0.031804
  H      -0.064538     -0.800647      0.674009
  H      -0.091686     -0.182788     -1.028477
  H      -0.073146      0.982893      0.357812
  F      -2.065303     -0.004256      0.031074
6
Coordinates from ORCA-job neb_MEP_ALL E -600.132089526971
  C       0.148067      0.000299     -0.002253
  Cl      2.130942      0.004466     -0.031931
  H      -0.064453     -0.803744      0.676622
  H      -0.091779     -0.183495     -1.032429
  H      -0.073138      0.986678      0.359200
  F      -2.049639     -0.004205      0.030791
6
Coordinates from ORCA-job neb_MEP_ALL E -600.131481240566
  C       0.127028      0.000252     -0.001923
  Cl      2.138322      0.004486     -0.032060
  H      -0.063921     -0.806238      0.678726
  H      -0.091375     -0.184067     -1.035631
  H      -0.072646      0.989741      0.360321
  F      -2.037407     -0.004174      0.030568
6
Coordinates from ORCA-job neb_MEP_ALL E -600.131004021031
  C       0.107602      0.000211     -0.001627
  Cl      2.145387      0.004500     -0.032175
  H      -0.063261     -0.808252      0.680419
  H      -0.090807     -0.184526     -1.038225
  H      -0.072018      0.992216      0.361218
  F      -2.026903     -0.004150      0.030390
6
Coordinates from ORCA-job neb_MEP_ALL E -600.130665372475
  C       0.089645      0.000172     -0.001349
  Cl      2.152012      0.004513     -0.032279
  H      -0.062538     -0.809902      0.681802
  H      -0.090155     -0.184901     -1.040362
  H      -0.071322      0.994246      0.361948
  F      -2.017641     -0.004129      0.030239
6
Coordinates from ORCA-job neb_MEP_ALL E -600.130455107807
  C       0.072911      0.000135     -0.001096
  Cl      2.158236      0.004526     -0.032376
  H      -0.061781     -0.811274      0.682950
  H      -0.089452     -0.185212     -1.042137
  H      -0.070586      0.995934      0.362551
  F      -2.009327     -0.004110      0.030108
6
Coordinates from ORCA-job neb_MEP_ALL E -600.130370306163
  C       0.057008      0.000100     -0.000851
  Cl      2.164194      0.004538     -0.032469
  H      -0.060997     -0.812439      0.683921
  H      -0.088711     -0.185475     -1.043651
  H      -0.069817      0.997370      0.363060
  F      -2.001677     -0.004094      0.029989
6
Coordinates from ORCA-job neb_MEP_ALL E -600.130416209391
  C       0.041466      0.000066     -0.000615
  Cl      2.170061      0.004550     -0.032557
  H      -0.060155     -0.813433      0.684746
  H      -0.087905     -0.185699     -1.044946
  H      -0.068987      0.998597      0.363491
  F      -1.994480     -0.004080      0.029881
6
Coordinates from ORCA-job neb_MEP_ALL E -600.130587179142
  C       0.025454      0.000033     -0.000369
  Cl      2.176102      0.004561     -0.032646
  H      -0.059246     -0.814331      0.685489
  H      -0.087030     -0.185903     -1.046125
  H      -0.068087      0.999707      0.363878
  F      -1.987193     -0.004068      0.029773
6
Coordinates from ORCA-job neb_MEP_ALL E -600.130942065025
  C       0.007790     -0.000000     -0.000119
  Cl      2.182739      0.004574     -0.032742
  H      -0.058203     -0.815182      0.686192
  H      -0.086016     -0.186092     -1.047227
  H      -0.067050      1.000755      0.364242
  F      -1.979261     -0.004054      0.029656
6
Coordinates from ORCA-job neb_MEP_ALL E -600.131582041406
  C      -0.012400     -0.000050      0.000272
  Cl      2.190272      0.004589     -0.032855
  H      -0.056972     -0.815944      0.686811
  H      -0.084816     -0.186278     -1.048316
  H      -0.065826      1.001720      0.364567
  F      -1.970258     -0.004038      0.029522
6
Coordinates from ORCA-job neb_MEP_ALL E -600.132701596541
  C      -0.036559     -0.000072      0.000431
  Cl      2.199188      0.004607     -0.032979
  H      -0.055474     -0.816706      0.687439
  H      -0.083325     -0.186419     -1.049139
  H      -0.064327      1.002609      0.364873
  F      -1.959503     -0.004020      0.029375
6
Coordinates from ORCA-job neb_MEP_ALL E -600.134534076360
  C      -0.065649     -0.000116      0.000762
  Cl      2.209816      0.004628     -0.033125
  H      -0.053655     -0.817226      0.687853
  H      -0.081497     -0.186520     -1.049764
  H      -0.062503      1.003233      0.365070
  F      -1.946512     -0.003998      0.029205
6
Coordinates from ORCA-job neb_MEP_ALL E -600.145388400460
  C      -0.169965     -0.000430      0.002711
  Cl      2.247001      0.004722     -0.033676
  H      -0.047446     -0.815352      0.686183
  H      -0.075241     -0.186160     -1.047878
  H      -0.056253      1.001108      0.364196
  F      -1.898096     -0.003889      0.028464
6
Coordinates from ORCA-job neb_MEP_ALL E -600.159087192032
  C      -0.266487     -0.000543      0.003922
  Cl      2.285521      0.004816     -0.034253
  H      -0.043097     -0.809498      0.681188
  H      -0.070470     -0.184796     -1.040271
  H      -0.051740      0.993846      0.361485
  F      -1.853727     -0.003824      0.027928
6
Coordinates from ORCA-job neb_MEP_ALL E -600.167947994028
  C      -0.337395     -0.000655      0.004969
  Cl      2.328300      0.004908     -0.035061
  H      -0.042196     -0.800995      0.674271
  H      -0.069415     -0.182935     -1.029409
  H      -0.050775      0.983448      0.357969
  F      -1.828519     -0.003771      0.027261
6
Coordinates from ORCA-job neb_MEP_ALL E -600.172240186835
  C      -0.385172     -0.000852      0.006052
  Cl      2.384153      0.004894     -0.035451
  H      -0.045183     -0.791999      0.666156
  H      -0.072951     -0.180542     -1.017322
  H      -0.053975      0.972347      0.353229
  F      -1.826871     -0.003848      0.027337
6
Coordinates from ORCA-job neb_MEP_ALL E -600.174347247813
  C      -0.413652     -0.000840      0.005894
  Cl      2.445826      0.005185     -0.036112
  H      -0.052471     -0.785127      0.660541
  H      -0.079066     -0.179368     -1.009345
  H      -0.060717      0.963970      0.350572
  F      -1.839920     -0.003821      0.028450
6
Coordinates from ORCA-job neb_MEP_ALL E -600.175426475140
  C      -0.426682     -0.000829      0.005743
  Cl      2.496667      0.005019     -0.034996
  H      -0.060403     -0.783600      0.658812
  H      -0.090509     -0.179053     -1.008531
  H      -0.069775      0.962438      0.349474
  F      -1.849298     -0.003974      0.029498
6
Coordinates from ORCA-job neb_MEP_ALL E -600.176048964967
  C      -0.435093     -0.000865      0.006143
  Cl      2.536229      0.005105     -0.036189
  H      -0.068646     -0.783731      0.659025
  H      -0.097595     -0.178867     -1.007696
  H      -0.077727      0.962378      0.349497
  F      -1.857168     -0.004020      0.029221
6
Coordinates from ORCA-job neb_MEP_ALL E -600.175863784385
  C      -0.435082     -0.000896      0.007070
  Cl      2.529615      0.005190     -0.040085
  H      -0.072772     -0.785385      0.662442
  H      -0.096155     -0.179198     -1.007539
  H      -0.080693      0.964204      0.352194
  F      -1.844914     -0.003916      0.025918
6
Coordinates from ORCA-job neb_MEP_ALL E -600.173324335993
  C      -0.447881     -0.000894      0.007251
  Cl      2.503626      0.005171     -0.039838
  H      -0.071871     -0.788967      0.665560
  H      -0.095164     -0.179993     -1.012076
  H      -0.079775      0.968487      0.353825
  F      -1.808935     -0.003804      0.025278
