6
Coordinates from ORCA-job neb_NEB-HEI_converged E -600.130376728505
  C           0.05700823962686      0.00009985236945     -0.00085097236928
  Cl          2.16419381865355      0.00453849026070     -0.03246881170829
  H          -0.06099654648767     -0.81243887079029      0.68392075256924
  H          -0.08871107143299     -0.18547541528276     -1.04365055604217
  H          -0.06981715718487      0.99736954887849      0.36306032767916
  F          -2.00167728317488     -0.00409360543559      0.02998925987133
